 001thermal_0001.out
************************************************************************
**                                                                    **
**                                                                    **
**                         OpenRadioss Engine                         **
**                                                                    **
**            Non-linear Finite Element Analysis Software             **
**                                                                    **
**                                                                    **
**                                                                    **
**                    Linux 64 bits, GNU compiler                     **
**                                                                    **
**                                                                    **
**                                                                    **
**                                                                    **
************************************************************************
** OpenRadioss Software                                               **
** COPYRIGHT (C) 1986-2022 Altair Engineering, Inc.                   **
** Licensed under GNU Affero General Public License.                  **
** See License file.                                                  **
************************************************************************
 
 NUMBER OF SPMD DOMAINS           1
 NUMBER OF THREADS PER DOMAIN     6
 NUMBER OF HMPP PROCESSES         6
  
 COMPUTATION HARDWARE DESCRIPTION
  
 HOSTNAME     CPU TYPE, FREQUENCY AND MEMORY
 DESKTOP-CT961AV   Intel(R) Core(TM) i7-9750H CPU @ 2.60GHz (x86_64), 2592 MHz,   3922 MB RAM,  10240 MB swap
  
************************************************************************


 001thermalD01                                                                   


 FINAL TIME . . . . . . . . . . . . . . . . . . .   60.00010    

 TIME INTERVAL FOR TIME HISTORY PLOTS . . . . . .  0.1000000    

 TIME STEP SCALE FACTOR . . . . . . . . . . . . .  0.9000000    

 MINIMUM TIME STEP  . . . . . . . . . . . . . . .   0.000000    


 NODAL TIME STEP SCALE FACTOR,  . . . . . . . . .  0.6700000    
 NODAL MINIMUM TIME STEP. . . . . . . . . . . . .  0.5000000E-03
 MIN. TIME FLAG . . . . . . . . . . . . . . . . .     8
    1:STOP. . . . . . . . . . . . . . . . . . . . 
    3:INCREASE MASS, ORIGINAL FORMULATION . . . . 
    8:INCREASE MASS, IMPROVED FORMULATION . . . . 


 BRICK TIME STEP SCALE FACTOR . . . . . . . . . .  0.9000000    
 BRICK MINIMUM TIME STEP. . . . . . . . . . . . .   0.000000    
 MIN. TIME STEP FLAG (1:STOP RUN, 2:DELETE BRICK)     0

 QUAD TIME STEP SCALE FACTOR. . . . . . . . . . .  0.9000000    
 QUAD MINIMUM TIME STEP . . . . . . . . . . . . .   0.000000    
 MIN. TIME STEP FLAG (1:STOP RUN, 2:DELETE QUAD).     0

 SHELL TIME STEP SCALE FACTOR . . . . . . . . . .  0.9000000    
 SHELL MINIMUM TIME STEP. . . . . . . . . . . . .   0.000000    
 MIN. TIME FLAG (1:STOP, 2:DELETE, 3:SMALL STRAIN)    0

 TRUSS TIME STEP SCALE FACTOR . . . . . . . . . .  0.9000000    
 TRUSS MINIMUM TIME STEP. . . . . . . . . . . . .   0.000000    
 MIN. TIME FLAG (1:STOP, 2:DELETE). . . . . . . .     0

 BEAM TIME STEP SCALE FACTOR. . . . . . . . . . .  0.9000000    
 BEAM MINIMUM TIME STEP . . . . . . . . . . . . .   0.000000    
 MIN. TIME FLAG (1:STOP, 2:DELETE). . . . . . . .     0

 SPRING TIME STEP SCALE FACTOR. . . . . . . . . .  0.9000000    
 SPRING MINIMUM TIME STEP . . . . . . . . . . . .   0.000000    
 MIN. TIME FLAG (1:STOP, 2:DELETE). . . . . . . .     0

 AIRBAG TIME STEP SCALE FACTOR. . . . . . . . . .  0.9000000    
 AIRBAG MINIMUM TIME STEP . . . . . . . . . . . .   0.000000    
 MIN. TIME FLAG (1:STOP). . . . . . . . . . . . .     0

 CONTACT TIME STEP SCALE FACTOR . . . . . . . . .  0.9000000    
 CONTACT MINIMUM TIME STEP. . . . . . . . . . . .   0.000000    
 MIN. TIME FLAG(1:STOP, 2:REMOVE NODE FROM INTERF)    0

 FVMBAG TIME STEP SCALE FACTOR. . . . . . . . . .   0.000000    
 FVMBAG MINIMUM TIME STEP . . . . . . . . . . . .   0.000000    
 FVMBAG TIME STEP FLAG. . . . . . . . . . . . . .     1

 PRINTOUT CYCLE FREQUENCY . . . . . . . . . . . .  -100

 RESTART CYCLE FREQUENCY. . . . . . . . . . . . .   10000000

 MAXIMUM RESTART WRITE BEFORE OVERWRITE . . . . .     0

 INVERS: INPUT DECK VERSION . . . . . . . . . . .   140
 ITTYP : FLAG FOR TYPE OF T-FILE. . . . . . . . .     4

 FINITE ELEMENT THERMAL ANALYSIS 

 TIME FOR FIRST ANIMATION-FILE PLOT . . . . . . .   0.000000    
 TIME INTERVAL FOR ANIMATION-FILE PLOTS . . . . .   3.000000    
 SENSOR FOR ANIMATION-FILE PLOTS. . . . . . . . .          0
 TIME INTERVAL FOR SENSOR ANIMATION-FILE PLOTS. .   0.000000    

 VARIABLE SAVED ON ANIMATION FILES (1: YES) :
      PLASTIC STRAIN. . . . . .     0
      DENSITY     (SOLID ONLY).     0
      SPECIFIC ENERGY . . . . .     0
      HOURGLASS ENERGY. . . . .     0
      TEMPERATURE (SOLID ONLY).     0
      THICKNESS   (SHELL ONLY).     0
      PRESSURE    (SOLID ONLY).     0
      VON MISES . . . . . . . .     0
      TURBULENT ENERGY (FLUID).     0
      TURBULENT VISCOSITY(FLUID)    0
      VORTICITY (FLUID) . . . .     0
 NODAL VALUES SAVED ON ANIMATION FILES (1: YES) :
      PRESSURE. . . . . . . . .     0
      DENSITY . . . . . . . . .     0
      TEMPERATURE . . . . . . .     1
 VECTOR SAVED ON ANIMATION FILES (1: YES) :
      VELOCITY VECTOR . . . . .     0
      DISPLACEMENT VECTOR . . .     0
      ACCELERATION VECTOR . . .     0
      CONTACT FORCES. . . . . .     1
      INTERNAL FORCES . . . . .     0
      EXTERNAL FORCES . . . . .     0
      SECTION RBY RWALL FORCES.     0
      ROTATIONAL VELOCITY VECTOR    0
      CONTACT PRESSURE (VECTORS)    0
 SHELL TENSOR SAVED ON ANIMATION FILES (1: YES) :
      MEMBRANE STRESS . . . . .     0
      BENDING STRESS(MOMENT/T^2)    0
      UPPER LAYER STRESS. . . .     0
      LOWER LAYER STRESS. . . .     0
      MEMBRANE STRAIN . . . . .     0
      CURVATURE . . . . . . . .     0
      UPPER LAYER STRAIN. . . .     0
      LOWER LAYER STRAIN. . . .     0
 NODAL MASS SAVED ON ANIMATION FILES (1: YES) :    0
 KEEP DELETED ELEMENT (1: YES) :    0


 INITIAL TIME STEP. . . . . . . . . . . . . . . .   0.000000    
 MAXIMUM TIME STEP. . . . . . . . . . . . . . . .  0.1000000E+31

 PARALLEL ARITHMETIC ON
 NUMBER OF INTERFACES TO BE ELIMINATED. . . . . .        0

 NUMBER OF SOLID  ELEMENT BLOCKS TO BE ELIMINATED        0

 NUMBER OF QUAD   ELEMENT BLOCKS TO BE ELIMINATED        0

 NUMBER OF SHELL  ELEMENT BLOCKS TO BE ELIMINATED        0

 NUMBER OF TRUSS  ELEMENT BLOCKS TO BE ELIMINATED        0

 NUMBER OF BEAM   ELEMENT BLOCKS TO BE ELIMINATED        0

 NUMBER OF SPRING ELEMENT BLOCKS TO BE ELIMINATED        0

 NUMBER OF SH_3N  ELEMENT BLOCKS TO BE ELIMINATED        0

 NUMBER OF  SPH PARTICLES BLOCKS TO BE ELIMINATED        0

 NUMBER OF RIGID LINKS. . . . . . . . . . . . . .        0

 NUMBER OF NEW BOUNDARY CONDITIONS. . . . . . . .        0

 26/10/2023
   CYCLE    TIME      TIME-STEP  ELEMENT          ERROR  I-ENERGY    K-ENERGY T  K-ENERGY R  EXT-WORK     MAS.ERR     TOTAL MASS  MASS ADDED
       0   0.000      0.5000E-03 NODE         536   0.0%   0.000       0.000       0.000       0.000      0.1613       32.74       4.547    
     ANIMATION FILE: 001thermalA001 WRITTEN
     100  0.5000E-01  0.5000E-03 NODE         571   0.2%  0.2281E-17  0.5941       0.000      0.5928      0.1617       32.75       4.558    
     200  0.1000      0.5000E-03 NODE         571   0.2%  0.4781E-17  0.5941       0.000      0.5928      0.1617       32.75       4.558    
     300  0.1500      0.5000E-03 NODE         571   0.2%  0.4874E-17  0.5941       0.000      0.5928      0.1617       32.75       4.558    
     400  0.2000      0.5000E-03 NODE         571   0.2%  0.3041E-17  0.5941       0.000      0.5928      0.1617       32.75       4.558    
     500  0.2500      0.5000E-03 NODE         567   0.2%  0.2938E-17  0.5941       0.000      0.5928      0.1617       32.75       4.558    
     600  0.3000      0.5000E-03 NODE         565   0.2%  0.1845E-17  0.5941       0.000      0.5928      0.1617       32.75       4.558    
     700  0.3500      0.5000E-03 NODE         567   0.2%  0.2793E-17  0.5941       0.000      0.5928      0.1617       32.75       4.558    
     800  0.4000      0.5000E-03 NODE         571   0.2%  0.1491E-17  0.5941       0.000      0.5928      0.1617       32.75       4.558    
     900  0.4500      0.5000E-03 NODE         571   0.2%  0.3134E-17  0.5941       0.000      0.5928      0.1617       32.75       4.558    
    1000  0.5000      0.5000E-03 NODE         571   0.2%  0.3252E-17  0.5941       0.000      0.5928      0.1617       32.75       4.558    
    1100  0.5500      0.5000E-03 NODE         571   0.2%  0.1713E-17  0.5941       0.000      0.5928      0.1617       32.75       4.558    
    1200  0.6000      0.5000E-03 NODE         571   0.2%  0.2593E-17  0.5941       0.000      0.5928      0.1617       32.75       4.558    
    1300  0.6500      0.5000E-03 NODE         571   0.2%  0.2496E-17  0.5941       0.000      0.5928      0.1617       32.75       4.558    
    1400  0.7000      0.5000E-03 NODE         571   0.2%  0.8328E-18  0.5941       0.000      0.5928      0.1617       32.75       4.558    
    1500  0.7500      0.5000E-03 NODE         571   0.2%  0.1836E-17  0.5941       0.000      0.5928      0.1617       32.75       4.558    
    1600  0.8000      0.5000E-03 NODE         571   0.2%  0.2919E-17  0.5941       0.000      0.5928      0.1617       32.75       4.558    
    1700  0.8500      0.5000E-03 NODE         571   0.2%  0.3474E-17  0.5941       0.000      0.5928      0.1617       32.75       4.558    
    1800  0.9000      0.5000E-03 NODE         571   0.2%  0.3043E-17  0.5941       0.000      0.5928      0.1617       32.75       4.558    
    1900  0.9500      0.5000E-03 NODE         571   0.2%  0.1860E-17  0.5941       0.000      0.5928      0.1617       32.75       4.558    
    2000   1.000      0.5000E-03 NODE         571   0.2%  0.1407E-17  0.5941       0.000      0.5928      0.1617       32.75       4.558    
    2100   1.050      0.5000E-03 NODE         571   0.2%  0.1251E-17  0.5941       0.000      0.5928      0.1617       32.75       4.558    
    2200   1.100      0.5000E-03 NODE         572   0.2%  0.2934E-17  0.5941       0.000      0.5928      0.1617       32.75       4.558    
    2300   1.150      0.5000E-03 NODE         571   0.2%  0.3878E-17  0.5941       0.000      0.5928      0.1617       32.75       4.558    
    2400   1.200      0.5000E-03 NODE         571   0.2%  0.2362E-17  0.5941       0.000      0.5928      0.1617       32.75       4.558    
    2500   1.250      0.5000E-03 NODE         571   0.2%  0.2369E-17  0.5941       0.000      0.5928      0.1617       32.75       4.558    
    2600   1.300      0.5000E-03 NODE         571   0.2%  0.3014E-17  0.5941       0.000      0.5928      0.1617       32.75       4.558    
    2700   1.350      0.5000E-03 NODE         571   0.2%  0.2222E-17  0.5941       0.000      0.5928      0.1617       32.75       4.558    
    2800   1.400      0.5000E-03 NODE         572   0.2%  0.2078E-16  0.5941       0.000      0.5928      0.1617       32.75       4.558    
    2900   1.450      0.5000E-03 NODE         572   0.2%  0.1614E-16  0.5941       0.000      0.5928      0.1617       32.75       4.558    
    3000   1.500      0.5000E-03 NODE         572   0.2%  0.1380E-16  0.5941       0.000      0.5928      0.1617       32.75       4.558    
    3100   1.550      0.5000E-03 NODE         572   0.2%  0.1399E-16  0.5941       0.000      0.5928      0.1617       32.75       4.558    
    3200   1.600      0.5000E-03 NODE         571   0.2%  0.1408E-16  0.5941       0.000      0.5928      0.1617       32.75       4.558    
    3300   1.650      0.5000E-03 NODE         571   0.2%  0.1789E-16  0.5941       0.000      0.5928      0.1617       32.75       4.558    
    3400   1.700      0.5000E-03 NODE         576   0.2%  0.1731E-16  0.5941       0.000      0.5928      0.1617       32.75       4.558    
    3500   1.750      0.5000E-03 NODE         576   0.2%  0.1126E-16  0.5941       0.000      0.5928      0.1617       32.75       4.558    
    3600   1.800      0.5000E-03 NODE         576   0.2%  0.6416E-17  0.5941       0.000      0.5928      0.1617       32.75       4.558    
    3700   1.850      0.5000E-03 NODE         572   0.2%  0.5494E-17  0.5941       0.000      0.5928      0.1617       32.75       4.558    
    3800   1.900      0.5000E-03 NODE         572   0.2%  0.5612E-17  0.5941       0.000      0.5928      0.1617       32.75       4.558    
    3900   1.950      0.5000E-03 NODE         576   0.2%  0.8176E-17  0.5941       0.000      0.5928      0.1617       32.75       4.558    
    4000   2.000      0.5000E-03 NODE         576   0.2%  0.7813E-17  0.5941       0.000      0.5928      0.1617       32.75       4.558    
    4100   2.050      0.5000E-03 NODE         572   0.2%  0.7488E-17  0.5941       0.000      0.5928      0.1617       32.75       4.558    
    4200   2.100      0.5000E-03 NODE         576   0.2%  0.8814E-17  0.5941       0.000      0.5928      0.1617       32.75       4.558    
    4300   2.150      0.5000E-03 NODE         576   0.2%  0.8296E-17  0.5941       0.000      0.5928      0.1617       32.75       4.558    
    4400   2.200      0.5000E-03 NODE         576   0.2%  0.9303E-17  0.5941       0.000      0.5928      0.1617       32.75       4.558    
    4500   2.250      0.5000E-03 NODE         576   0.2%  0.1021E-16  0.5941       0.000      0.5928      0.1617       32.75       4.558    
    4600   2.300      0.5000E-03 NODE         572   0.2%  0.1112E-16  0.5941       0.000      0.5928      0.1617       32.75       4.558    
    4700   2.350      0.5000E-03 NODE         576   0.2%  0.6294E-17  0.5941       0.000      0.5928      0.1617       32.75       4.558    
    4800   2.400      0.5000E-03 NODE         576   0.2%  0.5780E-17  0.5941       0.000      0.5928      0.1617       32.75       4.558    
    4900   2.450      0.5000E-03 NODE         576   0.2%  0.6816E-17  0.5941       0.000      0.5928      0.1617       32.75       4.558    
    5000   2.500      0.5000E-03 NODE         576   0.2%  0.1156E-16  0.5941       0.000      0.5928      0.1617       32.75       4.558    
    5100   2.550      0.5000E-03 NODE         576   0.2%  0.1206E-16  0.5941       0.000      0.5928      0.1617       32.75       4.558    
    5200   2.600      0.5000E-03 NODE         576   0.2%  0.7126E-17  0.5941       0.000      0.5928      0.1617       32.75       4.558    
    5300   2.650      0.5000E-03 NODE         577   0.2%  0.6688E-17  0.5941       0.000      0.5928      0.1617       32.75       4.558    
    5400   2.700      0.5000E-03 NODE         576   0.2%  0.8391E-17  0.5941       0.000      0.5928      0.1617       32.75       4.558    
   CYCLE    TIME      TIME-STEP  ELEMENT          ERROR  I-ENERGY    K-ENERGY T  K-ENERGY R  EXT-WORK     MAS.ERR     TOTAL MASS  MASS ADDED
    5500   2.750      0.5000E-03 NODE         576   0.2%  0.1217E-16  0.5941       0.000      0.5928      0.1617       32.75       4.558    
    5600   2.800      0.5000E-03 NODE         576   0.2%  0.9663E-17  0.5941       0.000      0.5928      0.1617       32.75       4.558    
    5700   2.850      0.5000E-03 NODE         576   0.2%  0.7925E-17  0.5941       0.000      0.5928      0.1617       32.75       4.558    
    5800   2.900      0.5000E-03 NODE         576   0.2%  0.7048E-17  0.5941       0.000      0.5928      0.1617       32.75       4.558    
    5900   2.950      0.5000E-03 NODE         576   0.2%  0.9126E-17  0.5941       0.000      0.5928      0.1617       32.75       4.558    
    6000   3.000      0.5000E-03 NODE         577   0.2%  0.7640E-17  0.5941       0.000      0.5928      0.1617       32.75       4.558    
     ANIMATION FILE: 001thermalA002 WRITTEN
    6100   3.050      0.5000E-03 NODE         577   0.2%  0.1221E-16  0.5941       0.000      0.5928      0.1617       32.75       4.558    
    6200   3.100      0.5000E-03 NODE         576   0.2%  0.5544E-16  0.5941       0.000      0.5928      0.1617       32.75       4.558    
    6300   3.150      0.5000E-03 NODE         576   0.2%  0.3666E-16  0.5941       0.000      0.5928      0.1617       32.75       4.558    
    6400   3.200      0.5000E-03 NODE         576   0.2%  0.2360E-16  0.5941       0.000      0.5928      0.1617       32.75       4.558    
    6500   3.250      0.5000E-03 NODE         576   0.2%  0.3560E-16  0.5941       0.000      0.5929      0.1617       32.75       4.558    
    6600   3.300      0.5000E-03 NODE         576   0.2%  0.6177E-16  0.5941       0.000      0.5929      0.1617       32.75       4.558    
    6700   3.350      0.5000E-03 NODE         550   0.2%  0.3871E-16  0.5941       0.000      0.5929      0.1617       32.75       4.558    
    6800   3.400      0.5000E-03 NODE         550   0.2%  0.2242E-16  0.5941       0.000      0.5929      0.1617       32.75       4.558    
    6900   3.450      0.5000E-03 NODE         550   0.2%  0.1619E-16  0.5941       0.000      0.5929      0.1617       32.75       4.558    
    7000   3.500      0.5000E-03 NODE         577   0.2%  0.1398E-16  0.5941       0.000      0.5929      0.1617       32.75       4.558    
    7100   3.550      0.5000E-03 NODE         550   0.2%  0.2611E-16  0.5941       0.000      0.5929      0.1617       32.75       4.558    
    7200   3.600      0.5000E-03 NODE         577   0.2%  0.1779E-16  0.5941       0.000      0.5929      0.1617       32.75       4.558    
    7300   3.650      0.5000E-03 NODE         577   0.2%  0.1266E-16  0.5941       0.000      0.5929      0.1617       32.75       4.558    
    7400   3.700      0.5000E-03 NODE         550   0.2%  0.3378E-16  0.5941       0.000      0.5929      0.1617       32.75       4.558    
    7500   3.750      0.5000E-03 NODE         550   0.2%  0.1281E-16  0.5941       0.000      0.5929      0.1617       32.75       4.558    
    7600   3.800      0.5000E-03 NODE         550   0.2%  0.2931E-16  0.5941       0.000      0.5929      0.1617       32.75       4.558    
    7700   3.850      0.5000E-03 NODE         550   0.2%  0.1039E-15  0.5941       0.000      0.5929      0.1617       32.75       4.558    
    7800   3.900      0.5000E-03 NODE         550   0.2%  0.9203E-16  0.5941       0.000      0.5929      0.1617       32.75       4.558    
    7900   3.950      0.5000E-03 NODE         540   0.2%  0.1063E-15  0.5941       0.000      0.5929      0.1617       32.75       4.558    
    8000   4.000      0.5000E-03 NODE         540   0.2%  0.1249E-15  0.5941       0.000      0.5929      0.1617       32.75       4.558    
    8100   4.050      0.5000E-03 NODE         550   0.2%  0.1486E-15  0.5941       0.000      0.5929      0.1617       32.75       4.558    
    8200   4.100      0.5000E-03 NODE         550   0.2%  0.5160E-16  0.5941       0.000      0.5929      0.1617       32.75       4.558    
    8300   4.150      0.5000E-03 NODE         556   0.2%  0.3329E-16  0.5941       0.000      0.5929      0.1617       32.75       4.558    
    8400   4.200      0.5000E-03 NODE         543   0.2%  0.6217E-16  0.5941       0.000      0.5929      0.1617       32.75       4.558    
    8500   4.250      0.5000E-03 NODE         550   0.2%  0.2547E-16  0.5941       0.000      0.5929      0.1617       32.75       4.558    
    8600   4.300      0.5000E-03 NODE         556   0.2%  0.4776E-16  0.5941       0.000      0.5929      0.1617       32.75       4.558    
    8700   4.350      0.5000E-03 NODE         556   0.2%  0.5609E-16  0.5941       0.000      0.5929      0.1617       32.75       4.558    
    8800   4.400      0.5000E-03 NODE         550   0.2%  0.6650E-16  0.5941       0.000      0.5929      0.1617       32.75       4.558    
    8900   4.450      0.5000E-03 NODE         556   0.2%  0.5445E-16  0.5941       0.000      0.5929      0.1617       32.75       4.558    
    9000   4.500      0.5000E-03 NODE         553   0.2%  0.2628E-16  0.5941       0.000      0.5929      0.1617       32.75       4.558    
    9100   4.550      0.5000E-03 NODE         553   0.2%  0.5126E-16  0.5941       0.000      0.5929      0.1617       32.75       4.558    
    9200   4.600      0.5000E-03 NODE         556   0.2%  0.3010E-16  0.5941       0.000      0.5929      0.1617       32.75       4.558    
    9300   4.650      0.5000E-03 NODE         556   0.2%  0.3429E-16  0.5941       0.000      0.5929      0.1617       32.75       4.558    
    9400   4.700      0.5000E-03 NODE         556   0.2%  0.6732E-16  0.5941       0.000      0.5929      0.1617       32.75       4.558    
    9500   4.750      0.5000E-03 NODE         552   0.2%  0.5649E-16  0.5941       0.000      0.5929      0.1617       32.75       4.558    
    9600   4.800      0.5000E-03 NODE         552   0.2%  0.4960E-16  0.5941       0.000      0.5929      0.1617       32.75       4.558    
    9700   4.850      0.5000E-03 NODE         550   0.2%  0.3694E-16  0.5941       0.000      0.5929      0.1617       32.75       4.558    
    9800   4.900      0.5000E-03 NODE         550   0.2%  0.5630E-16  0.5941       0.000      0.5929      0.1617       32.75       4.558    
    9900   4.950      0.5000E-03 NODE         556   0.2%  0.5695E-16  0.5941       0.000      0.5929      0.1617       32.75       4.558    
   10000   5.000      0.5000E-03 NODE         550   0.2%  0.4110E-16  0.5941       0.000      0.5929      0.1617       32.75       4.558    
   10100   5.050      0.5000E-03 NODE         550   0.2%  0.3666E-16  0.5941       0.000      0.5929      0.1617       32.75       4.558    
   10200   5.100      0.5000E-03 NODE         550   0.2%  0.5727E-16  0.5941       0.000      0.5929      0.1617       32.75       4.558    
   10300   5.150      0.5000E-03 NODE         550   0.2%  0.5762E-16  0.5941       0.000      0.5929      0.1617       32.75       4.558    
   10400   5.200      0.5000E-03 NODE         550   0.2%  0.4039E-16  0.5941       0.000      0.5929      0.1617       32.75       4.558    
   10500   5.250      0.5000E-03 NODE         550   0.2%  0.6657E-16  0.5941       0.000      0.5929      0.1617       32.75       4.558    
   10600   5.300      0.5000E-03 NODE         556   0.2%  0.4264E-16  0.5941       0.000      0.5929      0.1617       32.75       4.558    
   10700   5.350      0.5000E-03 NODE         556   0.2%  0.5295E-16  0.5941       0.000      0.5929      0.1617       32.75       4.558    
   10800   5.400      0.5000E-03 NODE         556   0.2%  0.5342E-16  0.5941       0.000      0.5929      0.1617       32.75       4.558    
   10900   5.450      0.5000E-03 NODE         556   0.2%  0.5455E-16  0.5941       0.000      0.5929      0.1617       32.75       4.558    
   CYCLE    TIME      TIME-STEP  ELEMENT          ERROR  I-ENERGY    K-ENERGY T  K-ENERGY R  EXT-WORK     MAS.ERR     TOTAL MASS  MASS ADDED
   11000   5.500      0.5000E-03 NODE         557   0.2%  0.8138E-16  0.5941       0.000      0.5929      0.1617       32.75       4.558    
   11100   5.550      0.5000E-03 NODE         557   0.2%  0.1361E-15  0.5941       0.000      0.5929      0.1617       32.75       4.558    
   11200   5.600      0.5000E-03 NODE         557   0.2%  0.1828E-15  0.5941       0.000      0.5929      0.1617       32.75       4.558    
   11300   5.650      0.5000E-03 NODE         557   0.2%  0.7441E-16  0.5941       0.000      0.5929      0.1617       32.75       4.558    
   11400   5.700      0.5000E-03 NODE         557   0.2%  0.6981E-16  0.5941       0.000      0.5929      0.1617       32.75       4.558    
   11500   5.750      0.5000E-03 NODE         557   0.2%  0.4806E-16  0.5941       0.000      0.5929      0.1617       32.75       4.558    
   11600   5.800      0.5000E-03 NODE         561   0.2%  0.1140E-15  0.5941       0.000      0.5929      0.1617       32.75       4.558    
   11700   5.850      0.5000E-03 NODE         561   0.2%  0.1208E-15  0.5941       0.000      0.5929      0.1617       32.75       4.558    
   11800   5.900      0.5000E-03 NODE         561   0.2%  0.2969E-16  0.5941       0.000      0.5929      0.1617       32.75       4.558    
   11900   5.950      0.5000E-03 NODE         557   0.2%  0.9802E-16  0.5941       0.000      0.5929      0.1617       32.75       4.558    
   12000   6.000      0.5000E-03 NODE         557   0.2%  0.5819E-16  0.5941       0.000      0.5929      0.1617       32.75       4.558    
     ANIMATION FILE: 001thermalA003 WRITTEN
   12100   6.050      0.5000E-03 NODE         557   0.2%  0.9545E-16  0.5941       0.000      0.5929      0.1617       32.75       4.558    
   12200   6.100      0.5000E-03 NODE         557   0.2%  0.9379E-16  0.5941       0.000      0.5929      0.1617       32.75       4.558    
   12300   6.150      0.5000E-03 NODE         561   0.2%  0.5631E-16  0.5941       0.000      0.5929      0.1617       32.75       4.558    
   12400   6.200      0.5000E-03 NODE         561   0.2%  0.9639E-16  0.5941       0.000      0.5929      0.1617       32.75       4.558    
   12500   6.250      0.5000E-03 NODE         561   0.2%  0.5337E-16  0.5941       0.000      0.5929      0.1617       32.75       4.558    
   12600   6.300      0.5000E-03 NODE         561   0.2%  0.8407E-16  0.5941       0.000      0.5929      0.1617       32.75       4.558    
   12700   6.350      0.5000E-03 NODE         561   0.2%  0.9277E-16  0.5941       0.000      0.5929      0.1617       32.75       4.558    
   12800   6.400      0.5000E-03 NODE         557   0.2%  0.9660E-16  0.5941       0.000      0.5929      0.1617       32.75       4.558    
   12900   6.450      0.5000E-03 NODE         561   0.2%  0.6581E-16  0.5941       0.000      0.5929      0.1617       32.75       4.558    
   13000   6.500      0.5000E-03 NODE         561   0.2%  0.7696E-16  0.5941       0.000      0.5929      0.1617       32.75       4.558    
   13100   6.550      0.5000E-03 NODE         561   0.2%  0.9110E-16  0.5941       0.000      0.5929      0.1617       32.75       4.558    
   13200   6.600      0.5000E-03 NODE         561   0.2%  0.7242E-16  0.5941       0.000      0.5930      0.1617       32.75       4.558    
   13300   6.650      0.5000E-03 NODE         561   0.2%  0.1095E-15  0.5941       0.000      0.5930      0.1617       32.75       4.558    
   13400   6.700      0.5000E-03 NODE         561   0.2%  0.4565E-16  0.5941       0.000      0.5930      0.1617       32.75       4.558    
   13500   6.750      0.5000E-03 NODE         562   0.2%  0.1011E-15  0.5941       0.000      0.5930      0.1617       32.75       4.558    
   13600   6.800      0.5000E-03 NODE         561   0.2%  0.6745E-16  0.5941       0.000      0.5930      0.1617       32.75       4.558    
   13700   6.850      0.5000E-03 NODE         561   0.2%  0.5913E-16  0.5941       0.000      0.5930      0.1617       32.75       4.558    
   13800   6.900      0.5000E-03 NODE         561   0.2%  0.1368E-15  0.5941       0.000      0.5930      0.1617       32.75       4.558    
   13900   6.950      0.5000E-03 NODE         561   0.2%  0.3834E-16  0.5941       0.000      0.5930      0.1617       32.75       4.558    
   14000   7.000      0.5000E-03 NODE         561   0.2%  0.1048E-15  0.5941       0.000      0.5930      0.1617       32.75       4.558    
   14100   7.050      0.5000E-03 NODE         561   0.2%  0.7735E-16  0.5941       0.000      0.5930      0.1617       32.75       4.558    
   14200   7.100      0.5000E-03 NODE         562   0.2%  0.7189E-16  0.5941       0.000      0.5930      0.1617       32.75       4.558    
   14300   7.150      0.5000E-03 NODE         562   0.2%  0.1139E-15  0.5941       0.000      0.5930      0.1617       32.75       4.558    
   14400   7.200      0.5000E-03 NODE         561   0.2%  0.5002E-16  0.5942       0.000      0.5930      0.1617       32.75       4.558    
   14500   7.250      0.5000E-03 NODE         561   0.2%  0.1086E-15  0.5942       0.000      0.5930      0.1617       32.75       4.558    
   14600   7.300      0.5000E-03 NODE         561   0.2%  0.4972E-16  0.5942       0.000      0.5930      0.1617       32.75       4.558    
   14700   7.350      0.5000E-03 NODE         561   0.2%  0.9126E-16  0.5942       0.000      0.5930      0.1617       32.75       4.558    
   14800   7.400      0.5000E-03 NODE         561   0.2%  0.1299E-15  0.5942       0.000      0.5930      0.1617       32.75       4.558    
   14900   7.450      0.5000E-03 NODE         562   0.2%  0.7129E-16  0.5942       0.000      0.5930      0.1617       32.75       4.558    
   15000   7.500      0.5000E-03 NODE         562   0.2%  0.8207E-16  0.5942       0.000      0.5930      0.1617       32.75       4.558    
   15100   7.550      0.5000E-03 NODE         562   0.2%  0.6864E-16  0.5942       0.000      0.5930      0.1617       32.75       4.558    
   15200   7.600      0.5000E-03 NODE         562   0.2%  0.8044E-16  0.5942       0.000      0.5930      0.1617       32.75       4.558    
   15300   7.650      0.5000E-03 NODE         562   0.2%  0.8061E-16  0.5942       0.000      0.5930      0.1617       32.75       4.558    
   15400   7.700      0.5000E-03 NODE         562   0.2%  0.8883E-16  0.5942       0.000      0.5930      0.1617       32.75       4.558    
   15500   7.750      0.5000E-03 NODE         562   0.2%  0.5614E-16  0.5942       0.000      0.5930      0.1617       32.75       4.558    
   15600   7.800      0.5000E-03 NODE         562   0.2%  0.9773E-16  0.5942       0.000      0.5930      0.1617       32.75       4.558    
   15700   7.850      0.5000E-03 NODE         562   0.2%  0.9086E-16  0.5942       0.000      0.5930      0.1617       32.75       4.558    
   15800   7.900      0.5000E-03 NODE         562   0.2%  0.6535E-16  0.5942       0.000      0.5930      0.1617       32.75       4.558    
   15900   7.950      0.5000E-03 NODE         562   0.2%  0.1137E-15  0.5942       0.000      0.5930      0.1617       32.75       4.558    
   16000   8.000      0.5000E-03 NODE         562   0.2%  0.4102E-16  0.5942       0.000      0.5930      0.1617       32.75       4.558    
   16100   8.050      0.5000E-03 NODE         562   0.2%  0.1126E-15  0.5942       0.000      0.5930      0.1617       32.75       4.558    
   16200   8.100      0.5000E-03 NODE         562   0.2%  0.6953E-16  0.5942       0.000      0.5930      0.1617       32.75       4.558    
   16300   8.150      0.5000E-03 NODE         562   0.2%  0.6478E-16  0.5942       0.000      0.5930      0.1617       32.75       4.558    
   16400   8.200      0.5000E-03 NODE         562   0.2%  0.1354E-15  0.5942       0.000      0.5930      0.1617       32.75       4.558    
   CYCLE    TIME      TIME-STEP  ELEMENT          ERROR  I-ENERGY    K-ENERGY T  K-ENERGY R  EXT-WORK     MAS.ERR     TOTAL MASS  MASS ADDED
   16500   8.250      0.5000E-03 NODE         562   0.2%  0.3634E-16  0.5942       0.000      0.5930      0.1617       32.75       4.558    
   16600   8.300      0.5000E-03 NODE         559   0.2%  0.1143E-15  0.5942       0.000      0.5930      0.1617       32.75       4.558    
   16700   8.350      0.5000E-03 NODE         540   0.2%  0.7405E-16  0.5942       0.000      0.5930      0.1617       32.75       4.558    
   16800   8.400      0.5000E-03 NODE         543   0.2%  0.7547E-16  0.5942       0.000      0.5930      0.1617       32.75       4.558    
   16900   8.450      0.5000E-03 NODE         548   0.2%  0.9797E-16  0.5942       0.000      0.5930      0.1617       32.75       4.558    
   17000   8.500      0.5000E-03 NODE         530   0.2%  0.4979E-16  0.5942       0.000      0.5930      0.1617       32.75       4.558    
   17100   8.550      0.5000E-03 NODE         530   0.2%  0.1149E-15  0.5942       0.000      0.5930      0.1617       32.75       4.558    
   17200   8.600      0.5000E-03 NODE         538   0.2%  0.6749E-16  0.5942       0.000      0.5930      0.1617       32.75       4.558    
   17300   8.650      0.5000E-03 NODE         550   0.2%  0.8046E-16  0.5942       0.000      0.5930      0.1617       32.75       4.558    
   17400   8.700      0.5000E-03 NODE         567   0.2%  0.8405E-16  0.5942       0.000      0.5930      0.1617       32.75       4.558    
   17500   8.750      0.5000E-03 NODE         567   0.2%  0.9148E-16  0.5942       0.000      0.5930      0.1617       32.75       4.558    
   17600   8.800      0.5000E-03 NODE         567   0.2%  0.7004E-16  0.5942       0.000      0.5930      0.1617       32.75       4.558    
   17700   8.850      0.5000E-03 NODE         567   0.2%  0.1065E-15  0.5942       0.000      0.5930      0.1617       32.75       4.558    
   17800   8.900      0.5000E-03 NODE         567   0.2%  0.1232E-15  0.5942       0.000      0.5930      0.1617       32.75       4.558    
   17900   8.950      0.5000E-03 NODE         567   0.2%  0.5290E-16  0.5942       0.000      0.5930      0.1617       32.75       4.558    
   18000   9.000      0.5000E-03 NODE         567   0.2%  0.1147E-15  0.5942       0.000      0.5930      0.1617       32.75       4.558    
     ANIMATION FILE: 001thermalA004 WRITTEN
   18100   9.050      0.5000E-03 NODE         567   0.2%  0.5408E-16  0.5942       0.000      0.5930      0.1617       32.75       4.558    
   18200   9.100      0.5000E-03 NODE         566   0.2%  0.9792E-16  0.5942       0.000      0.5930      0.1617       32.75       4.558    
   18300   9.150      0.5000E-03 NODE         567   0.2%  0.1032E-15  0.5942       0.000      0.5930      0.1617       32.75       4.558    
   18400   9.200      0.5000E-03 NODE         567   0.2%  0.6206E-16  0.5942       0.000      0.5930      0.1617       32.75       4.558    
   18500   9.250      0.5000E-03 NODE         567   0.2%  0.1440E-15  0.5942       0.000      0.5930      0.1617       32.75       4.558    
   18600   9.300      0.5000E-03 NODE         567   0.2%  0.3724E-16  0.5942       0.000      0.5930      0.1617       32.75       4.558    
   18700   9.350      0.5000E-03 NODE         567   0.2%  0.1050E-15  0.5942       0.000      0.5930      0.1617       32.75       4.558    
   18800   9.400      0.5000E-03 NODE         565   0.2%  0.9038E-16  0.5942       0.000      0.5930      0.1617       32.75       4.558    
   18900   9.450      0.5000E-03 NODE         567   0.2%  0.6505E-16  0.5942       0.000      0.5930      0.1617       32.75       4.558    
   19000   9.500      0.5000E-03 NODE         567   0.2%  0.1155E-15  0.5942       0.000      0.5930      0.1617       32.75       4.558    
   19100   9.550      0.5000E-03 NODE         567   0.2%  0.4281E-16  0.5942       0.000      0.5930      0.1617       32.75       4.558    
   19200   9.600      0.5000E-03 NODE         531   0.2%  0.1141E-15  0.5942       0.000      0.5930      0.1617       32.75       4.558    
   19300   9.650      0.5000E-03 NODE         535   0.2%  0.9270E-16  0.5942       0.000      0.5930      0.1617       32.75       4.558    
   19400   9.700      0.5000E-03 NODE         533   0.2%  0.7512E-16  0.5942       0.000      0.5930      0.1617       32.75       4.558    
   19500   9.750      0.5000E-03 NODE         540   0.2%  0.8528E-16  0.5942       0.000      0.5930      0.1617       32.75       4.558    
   19600   9.800      0.5000E-03 NODE         568   0.2%  0.8669E-16  0.5942       0.000      0.5930      0.1617       32.75       4.558    
   19700   9.850      0.5000E-03 NODE         531   0.2%  0.1022E-15  0.5942       0.000      0.5930      0.1617       32.75       4.558    
   19800   9.900      0.5000E-03 NODE         564   0.2%  0.7520E-16  0.5942       0.000      0.5930      0.1617       32.75       4.558    
   19900   9.950      0.5000E-03 NODE         572   0.2%  0.8892E-16  0.5942       0.000      0.5930      0.1617       32.75       4.558    
   20000   10.00      0.5000E-03 NODE         572   0.2%  0.7612E-16  0.5942       0.000      0.5930      0.1617       32.75       4.558    
   20100   10.05      0.5000E-03 NODE         572   0.2%  0.1037E-15  0.5942       0.000      0.5930      0.1617       32.75       4.558    
   20200   10.10      0.5000E-03 NODE         572   0.2%  0.5951E-16  0.5942       0.000      0.5930      0.1617       32.75       4.558    
   20300   10.15      0.5000E-03 NODE         572   0.2%  0.1062E-15  0.5942       0.000      0.5930      0.1617       32.75       4.558    
   20400   10.20      0.5000E-03 NODE         572   0.2%  0.1121E-15  0.5942       0.000      0.5930      0.1617       32.75       4.558    
   20500   10.25      0.5000E-03 NODE         572   0.2%  0.5046E-16  0.5942       0.000      0.5930      0.1617       32.75       4.558    
   20600   10.30      0.5000E-03 NODE         572   0.2%  0.1218E-15  0.5942       0.000      0.5930      0.1617       32.75       4.558    
   20700   10.35      0.5000E-03 NODE         572   0.2%  0.4837E-16  0.5942       0.000      0.5930      0.1617       32.75       4.558    
   20800   10.40      0.5000E-03 NODE         572   0.2%  0.1005E-15  0.5942       0.000      0.5930      0.1617       32.75       4.558    
   20900   10.45      0.5000E-03 NODE         572   0.2%  0.8790E-16  0.5942       0.000      0.5930      0.1617       32.75       4.558    
   21000   10.50      0.5000E-03 NODE         572   0.2%  0.8621E-16  0.5942       0.000      0.5930      0.1617       32.75       4.558    
   21100   10.55      0.5000E-03 NODE         572   0.2%  0.1339E-15  0.5942       0.000      0.5930      0.1617       32.75       4.558    
   21200   10.60      0.5000E-03 NODE         572   0.2%  0.3251E-16  0.5942       0.000      0.5930      0.1617       32.75       4.558    
   21300   10.65      0.5000E-03 NODE         572   0.2%  0.1146E-15  0.5942       0.000      0.5931      0.1617       32.75       4.558    
   21400   10.70      0.5000E-03 NODE         572   0.2%  0.1249E-15  0.5942       0.000      0.5931      0.1617       32.75       4.558    
   21500   10.75      0.5000E-03 NODE         572   0.2%  0.1044E-15  0.5942       0.000      0.5931      0.1617       32.75       4.558    
   21600   10.80      0.5000E-03 NODE         572   0.2%  0.9469E-16  0.5942       0.000      0.5931      0.1617       32.75       4.558    
   21700   10.85      0.5000E-03 NODE         572   0.2%  0.6214E-16  0.5942       0.000      0.5931      0.1617       32.75       4.558    
   21800   10.90      0.5000E-03 NODE         572   0.2%  0.1082E-15  0.5942       0.000      0.5931      0.1617       32.75       4.558    
   21900   10.95      0.5000E-03 NODE         572   0.2%  0.8705E-16  0.5942       0.000      0.5931      0.1617       32.75       4.558    
   CYCLE    TIME      TIME-STEP  ELEMENT          ERROR  I-ENERGY    K-ENERGY T  K-ENERGY R  EXT-WORK     MAS.ERR     TOTAL MASS  MASS ADDED
   22000   11.00      0.5000E-03 NODE         572   0.2%  0.8702E-16  0.5942       0.000      0.5931      0.1617       32.75       4.558    
   22100   11.05      0.5000E-03 NODE         572   0.2%  0.8771E-16  0.5942       0.000      0.5931      0.1617       32.75       4.558    
   22200   11.10      0.5000E-03 NODE         572   0.2%  0.1169E-15  0.5942       0.000      0.5931      0.1617       32.75       4.558    
   22300   11.15      0.5000E-03 NODE         572   0.2%  0.6352E-16  0.5942       0.000      0.5931      0.1617       32.75       4.558    
   22400   11.20      0.5000E-03 NODE         572   0.2%  0.9931E-16  0.5942       0.000      0.5931      0.1617       32.75       4.558    
   22500   11.25      0.5000E-03 NODE         572   0.2%  0.1136E-15  0.5942       0.000      0.5931      0.1617       32.75       4.558    
   22600   11.30      0.5000E-03 NODE         572   0.2%  0.5466E-16  0.5942       0.000      0.5931      0.1617       32.75       4.558    
   22700   11.35      0.5000E-03 NODE         572   0.2%  0.1345E-15  0.5942       0.000      0.5931      0.1617       32.75       4.558    
   22800   11.40      0.5000E-03 NODE         572   0.2%  0.5697E-16  0.5942       0.000      0.5931      0.1617       32.75       4.558    
   22900   11.45      0.5000E-03 NODE         572   0.2%  0.1092E-15  0.5942       0.000      0.5931      0.1617       32.75       4.558    
   23000   11.50      0.5000E-03 NODE         572   0.2%  0.1251E-15  0.5942       0.000      0.5931      0.1617       32.75       4.558    
   23100   11.55      0.5000E-03 NODE         572   0.2%  0.4733E-16  0.5942       0.000      0.5931      0.1617       32.75       4.558    
   23200   11.60      0.5000E-03 NODE         577   0.2%  0.1405E-15  0.5942       0.000      0.5931      0.1617       32.75       4.558    
   23300   11.65      0.5000E-03 NODE         577   0.2%  0.4221E-16  0.5942       0.000      0.5931      0.1617       32.75       4.558    
   23400   11.70      0.5000E-03 NODE         577   0.2%  0.9176E-16  0.5942       0.000      0.5931      0.1617       32.75       4.558    
   23500   11.75      0.5000E-03 NODE         577   0.2%  0.1286E-15  0.5942       0.000      0.5931      0.1617       32.75       4.558    
   23600   11.80      0.5000E-03 NODE         577   0.2%  0.6989E-16  0.5942       0.000      0.5931      0.1617       32.75       4.558    
   23700   11.85      0.5000E-03 NODE         577   0.2%  0.1280E-15  0.5942       0.000      0.5931      0.1617       32.75       4.558    
   23800   11.90      0.5000E-03 NODE         577   0.2%  0.5984E-16  0.5942       0.000      0.5931      0.1617       32.75       4.558    
   23900   11.95      0.5000E-03 NODE         577   0.2%  0.9593E-16  0.5942       0.000      0.5931      0.1617       32.75       4.558    
   24000   12.00      0.5000E-03 NODE         577   0.2%  0.1301E-15  0.5942       0.000      0.5931      0.1617       32.75       4.558    
     ANIMATION FILE: 001thermalA005 WRITTEN
   24100   12.05      0.5000E-03 NODE         577   0.2%  0.6391E-16  0.5942       0.000      0.5931      0.1617       32.75       4.558    
   24200   12.10      0.5000E-03 NODE         577   0.2%  0.8713E-16  0.5942       0.000      0.5931      0.1617       32.75       4.558    
   24300   12.15      0.5000E-03 NODE         577   0.2%  0.1034E-15  0.5942       0.000      0.5931      0.1617       32.75       4.558    
   24400   12.20      0.5000E-03 NODE         577   0.2%  0.1229E-15  0.5942       0.000      0.5931      0.1617       32.75       4.558    
   24500   12.25      0.5000E-03 NODE         577   0.2%  0.2358E-15  0.5942       0.000      0.5931      0.1617       32.75       4.558    
   24600   12.30      0.5000E-03 NODE         577   0.2%  0.1940E-15  0.5942       0.000      0.5931      0.1617       32.75       4.558    
   24700   12.35      0.5000E-03 NODE         577   0.2%  0.1041E-15  0.5942       0.000      0.5931      0.1617       32.75       4.558    
   24800   12.40      0.5000E-03 NODE         577   0.2%  0.1317E-15  0.5942       0.000      0.5931      0.1617       32.75       4.558    
   24900   12.45      0.5000E-03 NODE         577   0.2%  0.7785E-16  0.5942       0.000      0.5931      0.1617       32.75       4.558    
   25000   12.50      0.5000E-03 NODE         577   0.2%  0.1686E-15  0.5942       0.000      0.5931      0.1617       32.75       4.558    
   25100   12.55      0.5000E-03 NODE         577   0.2%  0.1769E-15  0.5942       0.000      0.5931      0.1617       32.75       4.558    
   25200   12.60      0.5000E-03 NODE         577   0.2%  0.5838E-16  0.5942       0.000      0.5931      0.1617       32.75       4.558    
   25300   12.65      0.5000E-03 NODE         577   0.2%  0.2079E-15  0.5942       0.000      0.5931      0.1617       32.75       4.558    
   25400   12.70      0.5000E-03 NODE         577   0.2%  0.1019E-15  0.5942       0.000      0.5931      0.1617       32.75       4.558    
   25500   12.75      0.5000E-03 NODE         577   0.2%  0.1307E-15  0.5942       0.000      0.5931      0.1617       32.75       4.558    
   25600   12.80      0.5000E-03 NODE         577   0.2%  0.1998E-15  0.5942       0.000      0.5931      0.1617       32.75       4.558    
   25700   12.85      0.5000E-03 NODE         577   0.2%  0.6324E-16  0.5942       0.000      0.5931      0.1617       32.75       4.558    
   25800   12.90      0.5000E-03 NODE         577   0.2%  0.1990E-15  0.5942       0.000      0.5931      0.1617       32.75       4.558    
   25900   12.95      0.5000E-03 NODE         540   0.2%  0.2036E-15  0.5942       0.000      0.5931      0.1617       32.75       4.558    
   26000   13.00      0.5000E-03 NODE         540   0.2%  0.2804E-15  0.5942       0.000      0.5931      0.1617       32.75       4.558    
   26100   13.05      0.5000E-03 NODE         540   0.2%  0.3192E-15  0.5942       0.000      0.5931      0.1617       32.75       4.558    
   26200   13.10      0.5000E-03 NODE         540   0.2%  0.2489E-15  0.5942       0.000      0.5931      0.1617       32.75       4.558    
   26300   13.15      0.5000E-03 NODE         540   0.2%  0.2065E-15  0.5942       0.000      0.5931      0.1617       32.75       4.558    
   26400   13.20      0.5000E-03 NODE         577   0.2%  0.1327E-15  0.5942       0.000      0.5931      0.1617       32.75       4.558    
   26500   13.25      0.5000E-03 NODE         542   0.2%  0.2409E-15  0.5942       0.000      0.5931      0.1617       32.75       4.558    
   26600   13.30      0.5000E-03 NODE         542   0.2%  0.1335E-15  0.5942       0.000      0.5931      0.1617       32.75       4.558    
   26700   13.35      0.5000E-03 NODE         542   0.2%  0.1500E-15  0.5942       0.000      0.5931      0.1617       32.75       4.558    
   26800   13.40      0.5000E-03 NODE         542   0.2%  0.1585E-15  0.5942       0.000      0.5931      0.1617       32.75       4.558    
   26900   13.45      0.5000E-03 NODE         542   0.2%  0.2170E-15  0.5942       0.000      0.5931      0.1617       32.75       4.558    
   27000   13.50      0.5000E-03 NODE         542   0.2%  0.1816E-15  0.5942       0.000      0.5931      0.1617       32.75       4.558    
   27100   13.55      0.5000E-03 NODE         543   0.2%  0.1049E-15  0.5942       0.000      0.5931      0.1617       32.75       4.558    
   27200   13.60      0.5000E-03 NODE         550   0.2%  0.2493E-15  0.5942       0.000      0.5931      0.1617       32.75       4.558    
   27300   13.65      0.5000E-03 NODE         530   0.2%  0.9131E-16  0.5942       0.000      0.5931      0.1617       32.75       4.558    
   27400   13.70      0.5000E-03 NODE         548   0.2%  0.2200E-15  0.5942       0.000      0.5931      0.1617       32.75       4.558    
   CYCLE    TIME      TIME-STEP  ELEMENT          ERROR  I-ENERGY    K-ENERGY T  K-ENERGY R  EXT-WORK     MAS.ERR     TOTAL MASS  MASS ADDED
   27500   13.75      0.5000E-03 NODE         552   0.2%  0.2046E-15  0.5942       0.000      0.5931      0.1617       32.75       4.558    
   27600   13.80      0.5000E-03 NODE         552   0.2%  0.1520E-15  0.5942       0.000      0.5931      0.1617       32.75       4.558    
   27700   13.85      0.5000E-03 NODE         552   0.2%  0.2341E-15  0.5942       0.000      0.5931      0.1617       32.75       4.558    
   27800   13.90      0.5000E-03 NODE         552   0.2%  0.7726E-16  0.5942       0.000      0.5931      0.1617       32.75       4.558    
   27900   13.95      0.5000E-03 NODE         552   0.2%  0.2227E-15  0.5942       0.000      0.5931      0.1617       32.75       4.558    
   28000   14.00      0.5000E-03 NODE         552   0.2%  0.1488E-15  0.5942       0.000      0.5931      0.1617       32.75       4.558    
   28100   14.05      0.5000E-03 NODE         557   0.2%  0.1673E-15  0.5942       0.000      0.5931      0.1617       32.75       4.558    
   28200   14.10      0.5000E-03 NODE         550   0.2%  0.2111E-15  0.5942       0.000      0.5932      0.1617       32.75       4.558    
   28300   14.15      0.5000E-03 NODE         550   0.2%  0.1448E-15  0.5942       0.000      0.5932      0.1617       32.75       4.558    
   28400   14.20      0.5000E-03 NODE         550   0.2%  0.2208E-15  0.5942       0.000      0.5932      0.1617       32.75       4.558    
   28500   14.25      0.5000E-03 NODE         550   0.2%  0.1228E-15  0.5942       0.000      0.5932      0.1617       32.75       4.558    
   28600   14.30      0.5000E-03 NODE         550   0.2%  0.2135E-15  0.5942       0.000      0.5932      0.1617       32.75       4.558    
   28700   14.35      0.5000E-03 NODE         550   0.2%  0.1143E-15  0.5942       0.000      0.5932      0.1617       32.75       4.558    
   28800   14.40      0.5000E-03 NODE         557   0.2%  0.1430E-15  0.5942       0.000      0.5932      0.1617       32.75       4.558    
   28900   14.45      0.5000E-03 NODE         557   0.2%  0.1816E-15  0.5942       0.000      0.5932      0.1617       32.75       4.558    
   29000   14.50      0.5000E-03 NODE         557   0.2%  0.1946E-15  0.5942       0.000      0.5932      0.1617       32.75       4.558    
   29100   14.55      0.5000E-03 NODE         557   0.2%  0.2594E-15  0.5942       0.000      0.5932      0.1617       32.75       4.558    
   29200   14.60      0.5000E-03 NODE         557   0.2%  0.1321E-15  0.5942       0.000      0.5932      0.1617       32.75       4.558    
   29300   14.65      0.5000E-03 NODE         557   0.2%  0.2384E-15  0.5942       0.000      0.5932      0.1617       32.75       4.558    
   29400   14.70      0.5000E-03 NODE         557   0.2%  0.2058E-15  0.5942       0.000      0.5932      0.1617       32.75       4.558    
   29500   14.75      0.5000E-03 NODE         557   0.2%  0.3860E-15  0.5942       0.000      0.5932      0.1617       32.75       4.558    
   29600   14.80      0.5000E-03 NODE         557   0.2%  0.3913E-15  0.5942       0.000      0.5932      0.1617       32.75       4.558    
   29700   14.85      0.5000E-03 NODE         557   0.2%  0.8407E-16  0.5942       0.000      0.5932      0.1617       32.75       4.558    
   29800   14.90      0.5000E-03 NODE         557   0.2%  0.3174E-15  0.5942       0.000      0.5932      0.1617       32.75       4.558    
   29900   14.95      0.5000E-03 NODE         557   0.2%  0.9664E-16  0.5942       0.000      0.5932      0.1617       32.75       4.558    
   30000   15.00      0.5000E-03 NODE         557   0.2%  0.3032E-15  0.5942       0.000      0.5932      0.1617       32.75       4.558    
     ANIMATION FILE: 001thermalA006 WRITTEN
   30100   15.05      0.5000E-03 NODE         557   0.2%  0.3135E-15  0.5942       0.000      0.5932      0.1617       32.75       4.558    
   30200   15.10      0.5000E-03 NODE         557   0.2%  0.1480E-15  0.5942       0.000      0.5932      0.1617       32.75       4.558    
   30300   15.15      0.5000E-03 NODE         557   0.2%  0.3353E-15  0.5942       0.000      0.5932      0.1617       32.75       4.558    
   30400   15.20      0.5000E-03 NODE         557   0.2%  0.1544E-15  0.5942       0.000      0.5932      0.1617       32.75       4.558    
   30500   15.25      0.5000E-03 NODE         557   0.2%  0.3207E-15  0.5942       0.000      0.5932      0.1617       32.75       4.558    
   30600   15.30      0.5000E-03 NODE         557   0.2%  0.2715E-15  0.5942       0.000      0.5932      0.1617       32.75       4.558    
   30700   15.35      0.5000E-03 NODE         557   0.2%  0.2049E-15  0.5942       0.000      0.5932      0.1617       32.75       4.558    
   30800   15.40      0.5000E-03 NODE         557   0.2%  0.2565E-15  0.5942       0.000      0.5932      0.1617       32.75       4.558    
   30900   15.45      0.5000E-03 NODE         557   0.2%  0.2442E-15  0.5942       0.000      0.5932      0.1617       32.75       4.558    
   31000   15.50      0.5000E-03 NODE         557   0.2%  0.2615E-15  0.5942       0.000      0.5932      0.1617       32.75       4.558    
   31100   15.55      0.5000E-03 NODE         557   0.2%  0.2413E-15  0.5942       0.000      0.5932      0.1617       32.75       4.558    
   31200   15.60      0.5000E-03 NODE         557   0.2%  0.3536E-15  0.5942       0.000      0.5932      0.1617       32.75       4.558    
   31300   15.65      0.5000E-03 NODE         557   0.2%  0.1451E-15  0.5942       0.000      0.5932      0.1617       32.75       4.558    
   31400   15.70      0.5000E-03 NODE         562   0.2%  0.3057E-15  0.5942       0.000      0.5932      0.1617       32.75       4.558    
   31500   15.75      0.5000E-03 NODE         562   0.2%  0.2113E-15  0.5942       0.000      0.5932      0.1617       32.75       4.558    
   31600   15.80      0.5000E-03 NODE         562   0.2%  0.2629E-15  0.5942       0.000      0.5932      0.1617       32.75       4.558    
   31700   15.85      0.5000E-03 NODE         562   0.2%  0.3637E-15  0.5942       0.000      0.5932      0.1617       32.75       4.558    
   31800   15.90      0.5000E-03 NODE         562   0.2%  0.6998E-16  0.5942       0.000      0.5932      0.1617       32.75       4.558    
   31900   15.95      0.5000E-03 NODE         562   0.2%  0.4000E-15  0.5942       0.000      0.5932      0.1617       32.75       4.558    
   32000   16.00      0.5000E-03 NODE         562   0.2%  0.1513E-15  0.5942       0.000      0.5932      0.1617       32.75       4.558    
   32100   16.05      0.5000E-03 NODE         562   0.2%  0.2549E-15  0.5942       0.000      0.5932      0.1617       32.75       4.558    
   32200   16.10      0.5000E-03 NODE         562   0.2%  0.3673E-15  0.5942       0.000      0.5932      0.1617       32.75       4.558    
   32300   16.15      0.5000E-03 NODE         562   0.2%  0.1206E-15  0.5942       0.000      0.5932      0.1617       32.75       4.558    
   32400   16.20      0.5000E-03 NODE         562   0.2%  0.3795E-15  0.5942       0.000      0.5932      0.1617       32.75       4.558    
   32500   16.25      0.5000E-03 NODE         562   0.2%  0.1109E-15  0.5942       0.000      0.5932      0.1617       32.75       4.558    
   32600   16.30      0.5000E-03 NODE         562   0.2%  0.3585E-15  0.5942       0.000      0.5932      0.1617       32.75       4.558    
   32700   16.35      0.5000E-03 NODE         562   0.2%  0.3375E-15  0.5942       0.000      0.5932      0.1617       32.75       4.558    
   32800   16.40      0.5000E-03 NODE         562   0.2%  0.1570E-15  0.5942       0.000      0.5932      0.1617       32.75       4.558    
   32900   16.45      0.5000E-03 NODE         562   0.2%  0.2630E-15  0.5942       0.000      0.5932      0.1617       32.75       4.558    
   CYCLE    TIME      TIME-STEP  ELEMENT          ERROR  I-ENERGY    K-ENERGY T  K-ENERGY R  EXT-WORK     MAS.ERR     TOTAL MASS  MASS ADDED
   33000   16.50      0.5000E-03 NODE         562   0.2%  0.1863E-15  0.5942       0.000      0.5932      0.1617       32.75       4.558    
   33100   16.55      0.5000E-03 NODE         562   0.2%  0.3039E-15  0.5942       0.000      0.5932      0.1617       32.75       4.558    
   33200   16.60      0.5000E-03 NODE         562   0.2%  0.2253E-15  0.5942       0.000      0.5932      0.1617       32.75       4.558    
   33300   16.65      0.5000E-03 NODE         562   0.2%  0.2901E-15  0.5942       0.000      0.5932      0.1617       32.75       4.558    
   33400   16.70      0.5000E-03 NODE         562   0.2%  0.2105E-15  0.5942       0.000      0.5932      0.1617       32.75       4.558    
   33500   16.75      0.5000E-03 NODE         562   0.2%  0.2747E-15  0.5942       0.000      0.5932      0.1617       32.75       4.558    
   33600   16.80      0.5000E-03 NODE         562   0.2%  0.2231E-15  0.5942       0.000      0.5932      0.1617       32.75       4.558    
   33700   16.85      0.5000E-03 NODE         562   0.2%  0.2075E-15  0.5942       0.000      0.5932      0.1617       32.75       4.558    
   33800   16.90      0.5000E-03 NODE         562   0.2%  0.3862E-15  0.5942       0.000      0.5932      0.1617       32.75       4.558    
   33900   16.95      0.5000E-03 NODE         562   0.2%  0.7086E-16  0.5942       0.000      0.5932      0.1617       32.75       4.558    
   34000   17.00      0.5000E-03 NODE         562   0.2%  0.3355E-15  0.5942       0.000      0.5932      0.1617       32.75       4.558    
   34100   17.05      0.5000E-03 NODE         562   0.2%  0.2179E-15  0.5942       0.000      0.5932      0.1617       32.75       4.558    
   34200   17.10      0.5000E-03 NODE         562   0.2%  0.1965E-15  0.5942       0.000      0.5932      0.1617       32.75       4.558    
   34300   17.15      0.5000E-03 NODE         562   0.2%  0.3846E-15  0.5942       0.000      0.5932      0.1617       32.75       4.558    
   34400   17.20      0.5000E-03 NODE         562   0.2%  0.9162E-16  0.5942       0.000      0.5932      0.1617       32.75       4.558    
   34500   17.25      0.5000E-03 NODE         562   0.2%  0.4123E-15  0.5942       0.000      0.5932      0.1617       32.75       4.558    
   34600   17.30      0.5000E-03 NODE         562   0.2%  0.1737E-15  0.5942       0.000      0.5932      0.1617       32.75       4.558    
   34700   17.35      0.5000E-03 NODE         562   0.2%  0.2135E-15  0.5942       0.000      0.5932      0.1617       32.75       4.558    
   34800   17.40      0.5000E-03 NODE         542   0.2%  0.3590E-15  0.5942       0.000      0.5932      0.1617       32.75       4.558    
   34900   17.45      0.5000E-03 NODE         540   0.2%  0.1387E-15  0.5942       0.000      0.5932      0.1617       32.75       4.558    
   35000   17.50      0.5000E-03 NODE         551   0.2%  0.3041E-15  0.5942       0.000      0.5932      0.1617       32.75       4.558    
   35100   17.55      0.5000E-03 NODE         535   0.2%  0.1933E-15  0.5942       0.000      0.5932      0.1617       32.75       4.558    
   35200   17.60      0.5000E-03 NODE         531   0.2%  0.2781E-15  0.5942       0.000      0.5932      0.1617       32.75       4.558    
   35300   17.65      0.5000E-03 NODE         539   0.2%  0.2557E-15  0.5942       0.000      0.5932      0.1617       32.75       4.558    
   35400   17.70      0.5000E-03 NODE         540   0.2%  0.2411E-15  0.5942       0.000      0.5932      0.1617       32.75       4.558    
   35500   17.75      0.5000E-03 NODE         540   0.2%  0.2424E-15  0.5942       0.000      0.5932      0.1617       32.75       4.558    
   35600   17.80      0.5000E-03 NODE         567   0.2%  0.2791E-15  0.5942       0.000      0.5932      0.1617       32.75       4.558    
   35700   17.85      0.5000E-03 NODE         567   0.2%  0.2390E-15  0.5942       0.000      0.5932      0.1617       32.75       4.558    
   35800   17.90      0.5000E-03 NODE         567   0.2%  0.1728E-15  0.5942       0.000      0.5932      0.1617       32.75       4.558    
   35900   17.95      0.5000E-03 NODE         567   0.2%  0.4275E-15  0.5942       0.000      0.5932      0.1617       32.75       4.558    
   36000   18.00      0.5000E-03 NODE         567   0.2%  0.1490E-15  0.5942       0.000      0.5932      0.1617       32.75       4.558    
     ANIMATION FILE: 001thermalA007 WRITTEN
   36100   18.05      0.5000E-03 NODE         567   0.2%  0.3088E-15  0.5942       0.000      0.5933      0.1617       32.75       4.558    
   36200   18.10      0.5000E-03 NODE         567   0.2%  0.2663E-15  0.5942       0.000      0.5933      0.1617       32.75       4.558    
   36300   18.15      0.5000E-03 NODE         567   0.2%  0.1940E-15  0.5942       0.000      0.5933      0.1617       32.75       4.558    
   36400   18.20      0.5000E-03 NODE         540   0.2%  0.3920E-15  0.5942       0.000      0.5933      0.1617       32.75       4.558    
   36500   18.25      0.5000E-03 NODE         567   0.2%  0.9401E-16  0.5942       0.000      0.5933      0.1617       32.75       4.558    
   36600   18.30      0.5000E-03 NODE         567   0.2%  0.3915E-15  0.5942       0.000      0.5933      0.1617       32.75       4.558    
   36700   18.35      0.5000E-03 NODE         567   0.2%  0.2135E-15  0.5942       0.000      0.5933      0.1617       32.75       4.558    
   36800   18.40      0.5000E-03 NODE         567   0.1%  0.1935E-15  0.5942       0.000      0.5933      0.1617       32.75       4.558    
   36900   18.45      0.5000E-03 NODE         567   0.1%  0.3875E-15  0.5942       0.000      0.5933      0.1617       32.75       4.558    
   37000   18.50      0.5000E-03 NODE         567   0.1%  0.1498E-15  0.5942       0.000      0.5933      0.1617       32.75       4.558    
   37100   18.55      0.5000E-03 NODE         567   0.1%  0.3430E-15  0.5942       0.000      0.5933      0.1617       32.75       4.558    
   37200   18.60      0.5000E-03 NODE         567   0.1%  0.1855E-15  0.5942       0.000      0.5933      0.1617       32.75       4.558    
   37300   18.65      0.5000E-03 NODE         530   0.1%  0.2626E-15  0.5942       0.000      0.5933      0.1617       32.75       4.558    
   37400   18.70      0.5000E-03 NODE         533   0.1%  0.2768E-15  0.5942       0.000      0.5933      0.1617       32.75       4.558    
   37500   18.75      0.5000E-03 NODE         561   0.1%  0.2225E-15  0.5942       0.000      0.5933      0.1617       32.75       4.558    
   37600   18.80      0.5000E-03 NODE         570   0.1%  0.2831E-15  0.5942       0.000      0.5933      0.1617       32.75       4.558    
   37700   18.85      0.5000E-03 NODE         537   0.1%  0.2406E-15  0.5942       0.000      0.5933      0.1617       32.75       4.558    
   37800   18.90      0.5000E-03 NODE         549   0.1%  0.3162E-15  0.5942       0.000      0.5933      0.1617       32.75       4.558    
   37900   18.95      0.5000E-03 NODE         567   0.1%  0.1771E-15  0.5942       0.000      0.5933      0.1617       32.75       4.558    
   38000   19.00      0.5000E-03 NODE         567   0.1%  0.3440E-15  0.5942       0.000      0.5933      0.1617       32.75       4.558    
   38100   19.05      0.5000E-03 NODE         572   0.1%  0.2095E-15  0.5942       0.000      0.5933      0.1617       32.75       4.558    
   38200   19.10      0.5000E-03 NODE         572   0.1%  0.2738E-15  0.5942       0.000      0.5933      0.1617       32.75       4.558    
   38300   19.15      0.5000E-03 NODE         572   0.1%  0.2678E-15  0.5942       0.000      0.5933      0.1617       32.75       4.558    
   38400   19.20      0.5000E-03 NODE         572   0.1%  0.1414E-15  0.5942       0.000      0.5933      0.1617       32.75       4.558    
   CYCLE    TIME      TIME-STEP  ELEMENT          ERROR  I-ENERGY    K-ENERGY T  K-ENERGY R  EXT-WORK     MAS.ERR     TOTAL MASS  MASS ADDED
   38500   19.25      0.5000E-03 NODE         572   0.1%  0.4453E-15  0.5942       0.000      0.5933      0.1617       32.75       4.558    
   38600   19.30      0.5000E-03 NODE         572   0.1%  0.1069E-15  0.5942       0.000      0.5933      0.1617       32.75       4.558    
   38700   19.35      0.5000E-03 NODE         572   0.1%  0.3310E-15  0.5942       0.000      0.5933      0.1617       32.75       4.558    
   38800   19.40      0.5000E-03 NODE         572   0.1%  0.2937E-15  0.5942       0.000      0.5933      0.1617       32.75       4.558    
   38900   19.45      0.5000E-03 NODE         572   0.1%  0.1457E-15  0.5942       0.000      0.5933      0.1617       32.75       4.558    
   39000   19.50      0.5000E-03 NODE         572   0.1%  0.4029E-15  0.5942       0.000      0.5933      0.1617       32.75       4.558    
   39100   19.55      0.5000E-03 NODE         572   0.1%  0.1328E-15  0.5942       0.000      0.5933      0.1617       32.75       4.558    
   39200   19.60      0.5000E-03 NODE         572   0.1%  0.3878E-15  0.5942       0.000      0.5933      0.1617       32.75       4.558    
   39300   19.65      0.5000E-03 NODE         572   0.1%  0.2453E-15  0.5942       0.000      0.5933      0.1617       32.75       4.558    
   39400   19.70      0.5000E-03 NODE         572   0.1%  0.2030E-15  0.5942       0.000      0.5933      0.1617       32.75       4.558    
   39500   19.75      0.5000E-03 NODE         572   0.1%  0.3473E-15  0.5942       0.000      0.5933      0.1617       32.75       4.558    
   39600   19.80      0.5000E-03 NODE         572   0.1%  0.1790E-15  0.5942       0.000      0.5933      0.1617       32.75       4.558    
   39700   19.85      0.5000E-03 NODE         572   0.1%  0.2793E-15  0.5942       0.000      0.5933      0.1617       32.75       4.558    
   39800   19.90      0.5000E-03 NODE         572   0.1%  0.2921E-15  0.5942       0.000      0.5933      0.1617       32.75       4.558    
   39900   19.95      0.5000E-03 NODE         572   0.1%  0.2921E-15  0.5942       0.000      0.5933      0.1617       32.75       4.558    
   40000   20.00      0.5000E-03 NODE         572   0.1%  0.2149E-15  0.5942       0.000      0.5933      0.1617       32.75       4.558    
   40100   20.05      0.5000E-03 NODE         572   0.1%  0.2995E-15  0.5942       0.000      0.5933      0.1617       32.75       4.558    
   40200   20.10      0.5000E-03 NODE         572   0.1%  0.2210E-15  0.5942       0.000      0.5933      0.1617       32.75       4.558    
   40300   20.15      0.5000E-03 NODE         572   0.1%  0.3185E-15  0.5942       0.000      0.5933      0.1617       32.75       4.558    
   40400   20.20      0.5000E-03 NODE         572   0.1%  0.2534E-15  0.5942       0.000      0.5933      0.1617       32.75       4.558    
   40500   20.25      0.5000E-03 NODE         572   0.1%  0.1352E-15  0.5942       0.000      0.5933      0.1617       32.75       4.558    
   40600   20.30      0.5000E-03 NODE         572   0.1%  0.4308E-15  0.5942       0.000      0.5933      0.1617       32.75       4.558    
   40700   20.35      0.5000E-03 NODE         572   0.1%  0.1226E-15  0.5942       0.000      0.5933      0.1617       32.75       4.558    
   40800   20.40      0.5000E-03 NODE         572   0.1%  0.3298E-15  0.5942       0.000      0.5933      0.1617       32.75       4.558    
   40900   20.45      0.5000E-03 NODE         572   0.1%  0.3410E-15  0.5942       0.000      0.5933      0.1617       32.75       4.558    
   41000   20.50      0.5000E-03 NODE         572   0.1%  0.1290E-15  0.5942       0.000      0.5933      0.1617       32.75       4.558    
   41100   20.55      0.5000E-03 NODE         572   0.1%  0.4049E-15  0.5942       0.000      0.5933      0.1617       32.75       4.558    
   41200   20.60      0.5000E-03 NODE         572   0.1%  0.1265E-15  0.5942       0.000      0.5933      0.1617       32.75       4.558    
   41300   20.65      0.5000E-03 NODE         572   0.1%  0.3539E-15  0.5942       0.000      0.5933      0.1617       32.75       4.558    
   41400   20.70      0.5000E-03 NODE         577   0.1%  0.2851E-15  0.5942       0.000      0.5933      0.1617       32.75       4.558    
   41500   20.75      0.5000E-03 NODE         577   0.1%  0.1341E-15  0.5942       0.000      0.5933      0.1617       32.75       4.558    
   41600   20.80      0.5000E-03 NODE         577   0.1%  0.3764E-15  0.5942       0.000      0.5933      0.1617       32.75       4.558    
   41700   20.85      0.5000E-03 NODE         577   0.1%  0.1904E-15  0.5942       0.000      0.5933      0.1617       32.75       4.558    
   41800   20.90      0.5000E-03 NODE         577   0.1%  0.2928E-15  0.5942       0.000      0.5933      0.1617       32.75       4.558    
   41900   20.95      0.5000E-03 NODE         577   0.1%  0.2978E-15  0.5942       0.000      0.5933      0.1617       32.75       4.558    
   42000   21.00      0.5000E-03 NODE         577   0.1%  0.2609E-15  0.5942       0.000      0.5933      0.1617       32.75       4.558    
     ANIMATION FILE: 001thermalA008 WRITTEN
   42100   21.05      0.5000E-03 NODE         577   0.1%  0.2451E-15  0.5942       0.000      0.5933      0.1617       32.75       4.558    
   42200   21.10      0.5000E-03 NODE         577   0.1%  0.2600E-15  0.5942       0.000      0.5933      0.1617       32.75       4.558    
   42300   21.15      0.5000E-03 NODE         577   0.1%  0.2223E-15  0.5942       0.000      0.5933      0.1617       32.75       4.558    
   42400   21.20      0.5000E-03 NODE         577   0.1%  0.2920E-15  0.5942       0.000      0.5933      0.1617       32.75       4.558    
   42500   21.25      0.5000E-03 NODE         577   0.1%  0.4820E-15  0.5942       0.000      0.5933      0.1617       32.75       4.558    
   42600   21.30      0.5000E-03 NODE         577   0.1%  0.1521E-15  0.5942       0.000      0.5933      0.1617       32.75       4.558    
   42700   21.35      0.5000E-03 NODE         577   0.1%  0.3687E-15  0.5942       0.000      0.5933      0.1617       32.75       4.558    
   42800   21.40      0.5000E-03 NODE         577   0.1%  0.1801E-15  0.5942       0.000      0.5933      0.1617       32.75       4.558    
   42900   21.45      0.5000E-03 NODE         577   0.1%  0.4426E-15  0.5942       0.000      0.5933      0.1617       32.75       4.558    
   43000   21.50      0.5000E-03 NODE         577   0.1%  0.5135E-15  0.5942       0.000      0.5933      0.1617       32.75       4.558    
   43100   21.55      0.5000E-03 NODE         577   0.1%  0.9568E-16  0.5942       0.000      0.5933      0.1617       32.75       4.558    
   43200   21.60      0.5000E-03 NODE         577   0.1%  0.4700E-15  0.5942       0.000      0.5933      0.1617       32.75       4.558    
   43300   21.65      0.5000E-03 NODE         577   0.1%  0.1230E-15  0.5942       0.000      0.5933      0.1617       32.75       4.558    
   43400   21.70      0.5000E-03 NODE         577   0.1%  0.3539E-15  0.5942       0.000      0.5933      0.1617       32.75       4.558    
   43500   21.75      0.5000E-03 NODE         577   0.1%  0.4396E-15  0.5942       0.000      0.5933      0.1617       32.75       4.558    
   43600   21.80      0.5000E-03 NODE         577   0.1%  0.9017E-16  0.5942       0.000      0.5933      0.1617       32.75       4.558    
   43700   21.85      0.5000E-03 NODE         577   0.1%  0.5022E-15  0.5942       0.000      0.5933      0.1617       32.75       4.558    
   43800   21.90      0.5000E-03 NODE         577   0.1%  0.2504E-15  0.5942       0.000      0.5933      0.1617       32.75       4.558    
   43900   21.95      0.5000E-03 NODE         577   0.1%  0.3378E-15  0.5942       0.000      0.5933      0.1617       32.75       4.558    
   CYCLE    TIME      TIME-STEP  ELEMENT          ERROR  I-ENERGY    K-ENERGY T  K-ENERGY R  EXT-WORK     MAS.ERR     TOTAL MASS  MASS ADDED
   44000   22.00      0.5000E-03 NODE         540   0.1%  0.3645E-15  0.5942       0.000      0.5933      0.1617       32.75       4.558    
   44100   22.05      0.5000E-03 NODE         540   0.1%  0.2245E-15  0.5942       0.000      0.5934      0.1617       32.75       4.558    
   44200   22.10      0.5000E-03 NODE         540   0.1%  0.5691E-15  0.5942       0.000      0.5934      0.1617       32.75       4.558    
   44300   22.15      0.5000E-03 NODE         540   0.1%  0.5880E-15  0.5942       0.000      0.5934      0.1617       32.75       4.558    
   44400   22.20      0.5000E-03 NODE         540   0.1%  0.5096E-15  0.5942       0.000      0.5934      0.1617       32.75       4.558    
   44500   22.25      0.5000E-03 NODE         540   0.1%  0.2549E-15  0.5942       0.000      0.5934      0.1617       32.75       4.558    
   44600   22.30      0.5000E-03 NODE         577   0.1%  0.3835E-15  0.5942       0.000      0.5934      0.1617       32.75       4.558    
   44700   22.35      0.5000E-03 NODE         542   0.1%  0.2149E-15  0.5942       0.000      0.5934      0.1617       32.75       4.558    
   44800   22.40      0.5000E-03 NODE         542   0.1%  0.3495E-15  0.5942       0.000      0.5934      0.1617       32.75       4.558    
   44900   22.45      0.5000E-03 NODE         542   0.1%  0.3787E-15  0.5942       0.000      0.5934      0.1617       32.75       4.558    
   45000   22.50      0.5000E-03 NODE         542   0.1%  0.3006E-15  0.5942       0.000      0.5934      0.1617       32.75       4.558    
   45100   22.55      0.5000E-03 NODE         542   0.1%  0.5171E-15  0.5942       0.000      0.5934      0.1617       32.75       4.558    
   45200   22.60      0.5000E-03 NODE         542   0.1%  0.1155E-15  0.5942       0.000      0.5934      0.1617       32.75       4.558    
   45300   22.65      0.5000E-03 NODE         543   0.1%  0.4625E-15  0.5942       0.000      0.5934      0.1617       32.75       4.558    
   45400   22.70      0.5000E-03 NODE         530   0.1%  0.2980E-15  0.5942       0.000      0.5934      0.1617       32.75       4.558    
   45500   22.75      0.5000E-03 NODE         531   0.1%  0.2100E-15  0.5942       0.000      0.5934      0.1617       32.75       4.558    
   45600   22.80      0.5000E-03 NODE         531   0.1%  0.4446E-15  0.5942       0.000      0.5934      0.1617       32.75       4.558    
   45700   22.85      0.5000E-03 NODE         552   0.1%  0.1407E-15  0.5942       0.000      0.5934      0.1617       32.75       4.558    
   45800   22.90      0.5000E-03 NODE         552   0.1%  0.5010E-15  0.5942       0.000      0.5934      0.1617       32.75       4.558    
   45900   22.95      0.5000E-03 NODE         552   0.1%  0.2442E-15  0.5942       0.000      0.5934      0.1617       32.75       4.558    
   46000   23.00      0.5000E-03 NODE         552   0.1%  0.3496E-15  0.5942       0.000      0.5934      0.1617       32.75       4.558    
   46100   23.05      0.5000E-03 NODE         552   0.1%  0.4695E-15  0.5942       0.000      0.5934      0.1617       32.75       4.558    
   46200   23.10      0.5000E-03 NODE         552   0.1%  0.2067E-15  0.5942       0.000      0.5934      0.1617       32.75       4.558    
   46300   23.15      0.5000E-03 NODE         557   0.1%  0.3931E-15  0.5942       0.000      0.5934      0.1617       32.75       4.558    
   46400   23.20      0.5000E-03 NODE         550   0.1%  0.2746E-15  0.5942       0.000      0.5934      0.1617       32.75       4.558    
   46500   23.25      0.5000E-03 NODE         550   0.1%  0.4188E-15  0.5942       0.000      0.5934      0.1617       32.75       4.558    
   46600   23.30      0.5000E-03 NODE         550   0.1%  0.2799E-15  0.5942       0.000      0.5934      0.1617       32.75       4.558    
   46700   23.35      0.5000E-03 NODE         550   0.1%  0.3558E-15  0.5942       0.000      0.5934      0.1617       32.75       4.558    
   46800   23.40      0.5000E-03 NODE         550   0.1%  0.3400E-15  0.5942       0.000      0.5934      0.1617       32.75       4.558    
   46900   23.45      0.5000E-03 NODE         550   0.1%  0.3936E-15  0.5942       0.000      0.5934      0.1617       32.75       4.558    
   47000   23.50      0.5000E-03 NODE         557   0.1%  0.4122E-15  0.5942       0.000      0.5934      0.1617       32.75       4.558    
   47100   23.55      0.5000E-03 NODE         557   0.1%  0.2795E-15  0.5942       0.000      0.5934      0.1617       32.75       4.558    
   47200   23.60      0.5000E-03 NODE         557   0.1%  0.5731E-15  0.5942       0.000      0.5934      0.1617       32.75       4.558    
   47300   23.65      0.5000E-03 NODE         557   0.1%  0.1507E-15  0.5942       0.000      0.5934      0.1617       32.75       4.558    
   47400   23.70      0.5000E-03 NODE         557   0.1%  0.7584E-15  0.5942       0.000      0.5934      0.1617       32.75       4.558    
   47500   23.75      0.5000E-03 NODE         557   0.1%  0.7154E-15  0.5942       0.000      0.5934      0.1617       32.75       4.558    
   47600   23.80      0.5000E-03 NODE         557   0.1%  0.1745E-15  0.5942       0.000      0.5934      0.1617       32.75       4.558    
   47700   23.85      0.5000E-03 NODE         557   0.1%  0.5597E-15  0.5942       0.000      0.5934      0.1617       32.75       4.558    
   47800   23.90      0.5000E-03 NODE         557   0.1%  0.1049E-15  0.5942       0.000      0.5934      0.1617       32.75       4.558    
   47900   23.95      0.5000E-03 NODE         557   0.1%  0.7007E-15  0.5942       0.000      0.5934      0.1617       32.75       4.558    
   48000   24.00      0.5000E-03 NODE         557   0.1%  0.5420E-15  0.5942       0.000      0.5934      0.1617       32.75       4.558    
     ANIMATION FILE: 001thermalA009 WRITTEN
   48100   24.05      0.5000E-03 NODE         557   0.1%  0.2294E-15  0.5942       0.000      0.5934      0.1617       32.75       4.558    
   48200   24.10      0.5000E-03 NODE         557   0.1%  0.6670E-15  0.5942       0.000      0.5934      0.1617       32.75       4.558    
   48300   24.15      0.5000E-03 NODE         557   0.1%  0.2298E-15  0.5942       0.000      0.5934      0.1617       32.75       4.558    
   48400   24.20      0.5000E-03 NODE         557   0.1%  0.4817E-15  0.5942       0.000      0.5934      0.1617       32.75       4.558    
   48500   24.25      0.5000E-03 NODE         557   0.1%  0.4838E-15  0.5942       0.000      0.5934      0.1617       32.75       4.558    
   48600   24.30      0.5000E-03 NODE         557   0.1%  0.4354E-15  0.5942       0.000      0.5934      0.1617       32.75       4.558    
   48700   24.35      0.5000E-03 NODE         557   0.1%  0.4970E-15  0.5942       0.000      0.5934      0.1617       32.75       4.558    
   48800   24.40      0.5000E-03 NODE         557   0.1%  0.3974E-15  0.5942       0.000      0.5934      0.1617       32.75       4.558    
   48900   24.45      0.5000E-03 NODE         557   0.1%  0.4620E-15  0.5942       0.000      0.5934      0.1617       32.75       4.558    
   49000   24.50      0.5000E-03 NODE         557   0.1%  0.4415E-15  0.5942       0.000      0.5934      0.1617       32.75       4.558    
   49100   24.55      0.5000E-03 NODE         557   0.1%  0.5389E-15  0.5942       0.000      0.5934      0.1617       32.75       4.558    
   49200   24.60      0.5000E-03 NODE         557   0.1%  0.2843E-15  0.5942       0.000      0.5934      0.1617       32.75       4.558    
   49300   24.65      0.5000E-03 NODE         557   0.1%  0.6652E-15  0.5942       0.000      0.5934      0.1617       32.75       4.558    
   49400   24.70      0.5000E-03 NODE         557   0.1%  0.3172E-15  0.5942       0.000      0.5934      0.1617       32.75       4.558    
   CYCLE    TIME      TIME-STEP  ELEMENT          ERROR  I-ENERGY    K-ENERGY T  K-ENERGY R  EXT-WORK     MAS.ERR     TOTAL MASS  MASS ADDED
   49500   24.75      0.5000E-03 NODE         557   0.1%  0.4439E-15  0.5942       0.000      0.5934      0.1617       32.75       4.558    
   49600   24.80      0.5000E-03 NODE         562   0.1%  0.6574E-15  0.5942       0.000      0.5934      0.1617       32.75       4.558    
   49700   24.85      0.5000E-03 NODE         562   0.1%  0.1763E-15  0.5942       0.000      0.5934      0.1617       32.75       4.558    
   49800   24.90      0.5000E-03 NODE         562   0.1%  0.7348E-15  0.5942       0.000      0.5934      0.1617       32.75       4.558    
   49900   24.95      0.5000E-03 NODE         562   0.1%  0.2036E-15  0.5942       0.000      0.5934      0.1617       32.75       4.558    
   50000   25.00      0.5000E-03 NODE         562   0.1%  0.5108E-15  0.5942       0.000      0.5934      0.1617       32.75       4.558    
   50100   25.05      0.5000E-03 NODE         562   0.1%  0.6103E-15  0.5942       0.000      0.5934      0.1617       32.75       4.558    
   50200   25.10      0.5000E-03 NODE         562   0.1%  0.1788E-15  0.5942       0.000      0.5934      0.1617       32.75       4.558    
   50300   25.15      0.5000E-03 NODE         562   0.1%  0.7428E-15  0.5942       0.000      0.5934      0.1617       32.75       4.558    
   50400   25.20      0.5000E-03 NODE         562   0.1%  0.2678E-15  0.5942       0.000      0.5934      0.1617       32.75       4.558    
   50500   25.25      0.5000E-03 NODE         562   0.1%  0.4940E-15  0.5942       0.000      0.5934      0.1617       32.75       4.558    
   50600   25.30      0.5000E-03 NODE         562   0.1%  0.4970E-15  0.5942       0.000      0.5934      0.1617       32.75       4.558    
   50700   25.35      0.5000E-03 NODE         562   0.1%  0.3482E-15  0.5942       0.000      0.5934      0.1617       32.75       4.558    
   50800   25.40      0.5000E-03 NODE         562   0.1%  0.5123E-15  0.5942       0.000      0.5934      0.1617       32.75       4.558    
   50900   25.45      0.5000E-03 NODE         562   0.1%  0.2953E-15  0.5942       0.000      0.5935      0.1617       32.75       4.558    
   51000   25.50      0.5000E-03 NODE         562   0.1%  0.5061E-15  0.5942       0.000      0.5935      0.1617       32.75       4.558    
   51100   25.55      0.5000E-03 NODE         562   0.1%  0.4651E-15  0.5942       0.000      0.5935      0.1617       32.75       4.558    
   51200   25.60      0.5000E-03 NODE         562   0.1%  0.4728E-15  0.5942       0.000      0.5935      0.1617       32.75       4.558    
   51300   25.65      0.5000E-03 NODE         562   0.1%  0.3183E-15  0.5942       0.000      0.5935      0.1617       32.75       4.558    
   51400   25.70      0.5000E-03 NODE         562   0.1%  0.5532E-15  0.5942       0.000      0.5935      0.1617       32.75       4.558    
   51500   25.75      0.5000E-03 NODE         562   0.1%  0.3874E-15  0.5942       0.000      0.5935      0.1617       32.75       4.558    
   51600   25.80      0.5000E-03 NODE         562   0.1%  0.3735E-15  0.5942       0.000      0.5935      0.1617       32.75       4.558    
   51700   25.85      0.5000E-03 NODE         562   0.1%  0.6153E-15  0.5942       0.000      0.5935      0.1617       32.75       4.558    
   51800   25.90      0.5000E-03 NODE         562   0.1%  0.1987E-15  0.5942       0.000      0.5935      0.1617       32.75       4.558    
   51900   25.95      0.5000E-03 NODE         562   0.1%  0.7140E-15  0.5942       0.000      0.5935      0.1617       32.75       4.558    
   52000   26.00      0.5000E-03 NODE         562   0.1%  0.2713E-15  0.5942       0.000      0.5935      0.1617       32.75       4.558    
   52100   26.05      0.5000E-03 NODE         562   0.1%  0.3871E-15  0.5942       0.000      0.5935      0.1617       32.75       4.558    
   52200   26.10      0.5000E-03 NODE         562   0.1%  0.6320E-15  0.5942       0.000      0.5935      0.1617       32.75       4.558    
   52300   26.15      0.5000E-03 NODE         562   0.1%  0.1360E-15  0.5942       0.000      0.5935      0.1617       32.75       4.558    
   52400   26.20      0.5000E-03 NODE         562   0.1%  0.7431E-15  0.5942       0.000      0.5935      0.1617       32.75       4.558    
   52500   26.25      0.5000E-03 NODE         562   0.1%  0.2761E-15  0.5942       0.000      0.5935      0.1617       32.75       4.558    
   52600   26.30      0.5000E-03 NODE         562   0.1%  0.4772E-15  0.5942       0.000      0.5935      0.1617       32.75       4.558    
   52700   26.35      0.5000E-03 NODE         562   0.1%  0.5573E-15  0.5942       0.000      0.5935      0.1617       32.75       4.558    
   52800   26.40      0.5000E-03 NODE         562   0.1%  0.2410E-15  0.5942       0.000      0.5935      0.1617       32.75       4.558    
   52900   26.45      0.5000E-03 NODE         562   0.1%  0.6567E-15  0.5942       0.000      0.5935      0.1617       32.75       4.558    
   53000   26.50      0.5000E-03 NODE         570   0.1%  0.3227E-15  0.5942       0.000      0.5935      0.1617       32.75       4.558    
   53100   26.55      0.5000E-03 NODE         531   0.1%  0.4354E-15  0.5942       0.000      0.5935      0.1617       32.75       4.558    
   53200   26.60      0.5000E-03 NODE         561   0.1%  0.4539E-15  0.5942       0.000      0.5935      0.1617       32.75       4.558    
   53300   26.65      0.5000E-03 NODE         530   0.1%  0.4441E-15  0.5942       0.000      0.5935      0.1617       32.75       4.558    
   53400   26.70      0.5000E-03 NODE         551   0.1%  0.4047E-15  0.5942       0.000      0.5935      0.1617       32.75       4.558    
   53500   26.75      0.5000E-03 NODE         535   0.1%  0.4873E-15  0.5942       0.000      0.5935      0.1617       32.75       4.558    
   53600   26.80      0.5000E-03 NODE         550   0.1%  0.4420E-15  0.5942       0.000      0.5935      0.1617       32.75       4.558    
   53700   26.85      0.5000E-03 NODE         545   0.1%  0.3518E-15  0.5942       0.000      0.5935      0.1617       32.75       4.558    
   53800   26.90      0.5000E-03 NODE         567   0.1%  0.5959E-15  0.5942       0.000      0.5935      0.1617       32.75       4.558    
   53900   26.95      0.5000E-03 NODE         567   0.1%  0.2200E-15  0.5942       0.000      0.5935      0.1617       32.75       4.558    
   54000   27.00      0.5000E-03 NODE         565   0.1%  0.6734E-15  0.5942       0.000      0.5935      0.1617       32.75       4.558    
     ANIMATION FILE: 001thermalA010 WRITTEN
   54100   27.05      0.5000E-03 NODE         567   0.1%  0.4161E-15  0.5942       0.000      0.5935      0.1617       32.75       4.558    
   54200   27.10      0.5000E-03 NODE         567   0.1%  0.3381E-15  0.5942       0.000      0.5935      0.1617       32.75       4.558    
   54300   27.15      0.5000E-03 NODE         567   0.1%  0.7128E-15  0.5942       0.000      0.5935      0.1617       32.75       4.558    
   54400   27.20      0.5000E-03 NODE         567   0.1%  0.1340E-15  0.5942       0.000      0.5935      0.1617       32.75       4.558    
   54500   27.25      0.5000E-03 NODE         567   0.1%  0.7024E-15  0.5942       0.000      0.5935      0.1617       32.75       4.558    
   54600   27.30      0.5000E-03 NODE         567   0.1%  0.3213E-15  0.5942       0.000      0.5935      0.1617       32.75       4.558    
   54700   27.35      0.5000E-03 NODE         567   0.1%  0.3930E-15  0.5942       0.000      0.5935      0.1617       32.75       4.558    
   54800   27.40      0.5000E-03 NODE         567   0.1%  0.6592E-15  0.5942       0.000      0.5935      0.1617       32.75       4.558    
   54900   27.45      0.5000E-03 NODE         567   0.1%  0.1815E-15  0.5942       0.000      0.5935      0.1617       32.75       4.558    
   CYCLE    TIME      TIME-STEP  ELEMENT          ERROR  I-ENERGY    K-ENERGY T  K-ENERGY R  EXT-WORK     MAS.ERR     TOTAL MASS  MASS ADDED
   55000   27.50      0.5000E-03 NODE         567   0.1%  0.7084E-15  0.5942       0.000      0.5935      0.1617       32.75       4.558    
   55100   27.55      0.5000E-03 NODE         567   0.1%  0.4073E-15  0.5942       0.000      0.5935      0.1617       32.75       4.558    
   55200   27.60      0.5000E-03 NODE         567   0.1%  0.4037E-15  0.5942       0.000      0.5935      0.1617       32.75       4.558    
   55300   27.65      0.5000E-03 NODE         567   0.1%  0.4880E-15  0.5942       0.000      0.5935      0.1617       32.75       4.558    
   55400   27.70      0.5000E-03 NODE         567   0.1%  0.3945E-15  0.5942       0.000      0.5935      0.1617       32.75       4.558    
   55500   27.75      0.5000E-03 NODE         535   0.1%  0.4537E-15  0.5942       0.000      0.5935      0.1617       32.75       4.558    
   55600   27.80      0.5000E-03 NODE         538   0.1%  0.4490E-15  0.5942       0.000      0.5935      0.1617       32.75       4.558    
   55700   27.85      0.5000E-03 NODE         551   0.1%  0.5032E-15  0.5942       0.000      0.5935      0.1617       32.75       4.558    
   55800   27.90      0.5000E-03 NODE         540   0.1%  0.3657E-15  0.5942       0.000      0.5935      0.1617       32.75       4.558    
   55900   27.95      0.5000E-03 NODE         548   0.1%  0.5989E-15  0.5942       0.000      0.5935      0.1617       32.75       4.558    
   56000   28.00      0.5000E-03 NODE         531   0.1%  0.3014E-15  0.5942       0.000      0.5935      0.1617       32.75       4.558    
   56100   28.05      0.5000E-03 NODE         538   0.1%  0.6154E-15  0.5942       0.000      0.5935      0.1617       32.75       4.558    
   56200   28.10      0.5000E-03 NODE         530   0.1%  0.4395E-15  0.5942       0.000      0.5935      0.1617       32.75       4.558    
   56300   28.15      0.5000E-03 NODE         572   0.1%  0.2717E-15  0.5942       0.000      0.5935      0.1617       32.75       4.558    
   56400   28.20      0.5000E-03 NODE         572   0.1%  0.7202E-15  0.5942       0.000      0.5935      0.1617       32.75       4.558    
   56500   28.25      0.5000E-03 NODE         572   0.1%  0.1090E-15  0.5942       0.000      0.5935      0.1617       32.75       4.558    
   56600   28.30      0.5000E-03 NODE         572   0.1%  0.7059E-15  0.5942       0.000      0.5935      0.1617       32.75       4.558    
   56700   28.35      0.5000E-03 NODE         572   0.1%  0.4426E-15  0.5942       0.000      0.5935      0.1617       32.75       4.558    
   56800   28.40      0.5000E-03 NODE         572   0.1%  0.2881E-15  0.5942       0.000      0.5935      0.1617       32.75       4.558    
   56900   28.45      0.5000E-03 NODE         572   0.1%  0.7345E-15  0.5942       0.000      0.5935      0.1617       32.75       4.558    
   57000   28.50      0.5000E-03 NODE         572   0.1%  0.1487E-15  0.5942       0.000      0.5935      0.1617       32.75       4.558    
   57100   28.55      0.5000E-03 NODE         572   0.1%  0.6346E-15  0.5942       0.000      0.5935      0.1617       32.75       4.558    
   57200   28.60      0.5000E-03 NODE         572   0.1%  0.4269E-15  0.5942       0.000      0.5935      0.1617       32.75       4.558    
   57300   28.65      0.5000E-03 NODE         572   0.1%  0.3961E-15  0.5942       0.000      0.5935      0.1617       32.75       4.558    
   57400   28.70      0.5000E-03 NODE         572   0.1%  0.5604E-15  0.5942       0.000      0.5935      0.1617       32.75       4.558    
   57500   28.75      0.5000E-03 NODE         572   0.1%  0.3130E-15  0.5942       0.000      0.5935      0.1617       32.75       4.558    
   57600   28.80      0.5000E-03 NODE         572   0.1%  0.5205E-15  0.5942       0.000      0.5935      0.1617       32.75       4.558    
   57700   28.85      0.5000E-03 NODE         572   0.1%  0.5113E-15  0.5942       0.000      0.5935      0.1617       32.75       4.558    
   57800   28.90      0.5000E-03 NODE         572   0.1%  0.4882E-15  0.5942       0.000      0.5935      0.1617       32.75       4.558    
   57900   28.95      0.5000E-03 NODE         571   0.1%  0.4055E-15  0.5942       0.000      0.5935      0.1617       32.75       4.558    
   58000   29.00      0.5000E-03 NODE         572   0.1%  0.5499E-15  0.5942       0.000      0.5935      0.1617       32.75       4.558    
   58100   29.05      0.5000E-03 NODE         572   0.1%  0.2984E-15  0.5942       0.000      0.5935      0.1617       32.75       4.558    
   58200   29.10      0.5000E-03 NODE         572   0.1%  0.6006E-15  0.5942       0.000      0.5935      0.1617       32.75       4.558    
   58300   29.15      0.5000E-03 NODE         572   0.1%  0.5265E-15  0.5942       0.000      0.5935      0.1617       32.75       4.558    
   58400   29.20      0.5000E-03 NODE         572   0.1%  0.2761E-15  0.5942       0.000      0.5935      0.1617       32.75       4.558    
   58500   29.25      0.5000E-03 NODE         572   0.1%  0.7483E-15  0.5942       0.000      0.5935      0.1617       32.75       4.558    
   58600   29.30      0.5000E-03 NODE         572   0.1%  0.1270E-15  0.5942       0.000      0.5935      0.1617       32.75       4.558    
   58700   29.35      0.5000E-03 NODE         572   0.1%  0.6349E-15  0.5942       0.000      0.5935      0.1617       32.75       4.558    
   58800   29.40      0.5000E-03 NODE         572   0.1%  0.5393E-15  0.5942       0.000      0.5935      0.1617       32.75       4.558    
   58900   29.45      0.5000E-03 NODE         572   0.1%  0.2006E-15  0.5942       0.000      0.5935      0.1617       32.75       4.558    
   59000   29.50      0.5000E-03 NODE         572   0.1%  0.7982E-15  0.5942       0.000      0.5936      0.1617       32.75       4.558    
   59100   29.55      0.5000E-03 NODE         572   0.1%  0.1748E-15  0.5942       0.000      0.5936      0.1617       32.75       4.558    
   59200   29.60      0.5000E-03 NODE         572   0.1%  0.6245E-15  0.5942       0.000      0.5936      0.1617       32.75       4.558    
   59300   29.65      0.5000E-03 NODE         572   0.1%  0.5493E-15  0.5942       0.000      0.5936      0.1617       32.75       4.558    
   59400   29.70      0.5000E-03 NODE         572   0.1%  0.3185E-15  0.5942       0.000      0.5936      0.1617       32.75       4.558    
   59500   29.75      0.5000E-03 NODE         572   0.1%  0.6336E-15  0.5942       0.000      0.5936      0.1617       32.75       4.558    
   59600   29.80      0.5000E-03 NODE         577   0.1%  0.2484E-15  0.5942       0.000      0.5936      0.1617       32.75       4.558    
   59700   29.85      0.5000E-03 NODE         577   0.1%  0.5259E-15  0.5942       0.000      0.5936      0.1617       32.75       4.558    
   59800   29.90      0.5000E-03 NODE         577   0.1%  0.5469E-15  0.5942       0.000      0.5936      0.1617       32.75       4.558    
   59900   29.95      0.5000E-03 NODE         577   0.1%  0.4259E-15  0.5942       0.000      0.5936      0.1617       32.75       4.558    
   60000   30.00      0.5000E-03 NODE         577   0.1%  0.4717E-15  0.5942       0.000      0.5936      0.1617       32.75       4.558    
     ANIMATION FILE: 001thermalA011 WRITTEN
   60100   30.05      0.5000E-03 NODE         577   0.1%  0.5370E-15  0.5942       0.000      0.5936      0.1617       32.75       4.558    
   60200   30.10      0.5000E-03 NODE         577   0.1%  0.3267E-15  0.5942       0.000      0.5936      0.1617       32.75       4.558    
   60300   30.15      0.5000E-03 NODE         577   0.1%  0.5651E-15  0.5942       0.000      0.5936      0.1617       32.75       4.558    
   60400   30.20      0.5000E-03 NODE         577   0.1%  0.5874E-15  0.5942       0.000      0.5936      0.1617       32.75       4.558    
   CYCLE    TIME      TIME-STEP  ELEMENT          ERROR  I-ENERGY    K-ENERGY T  K-ENERGY R  EXT-WORK     MAS.ERR     TOTAL MASS  MASS ADDED
   60500   30.25      0.5000E-03 NODE         577   0.1%  0.2506E-15  0.5942       0.000      0.5936      0.1617       32.75       4.558    
   60600   30.30      0.5000E-03 NODE         577   0.1%  0.7339E-15  0.5942       0.000      0.5936      0.1617       32.75       4.558    
   60700   30.35      0.5000E-03 NODE         577   0.1%  0.2614E-15  0.5942       0.000      0.5936      0.1617       32.75       4.558    
   60800   30.40      0.5000E-03 NODE         577   0.1%  0.8252E-15  0.5942       0.000      0.5936      0.1617       32.75       4.558    
   60900   30.45      0.5000E-03 NODE         577   0.1%  0.8418E-15  0.5942       0.000      0.5936      0.1617       32.75       4.558    
   61000   30.50      0.5000E-03 NODE         577   0.1%  0.1516E-15  0.5942       0.000      0.5936      0.1617       32.75       4.558    
   61100   30.55      0.5000E-03 NODE         577   0.1%  0.7483E-15  0.5942       0.000      0.5936      0.1617       32.75       4.558    
   61200   30.60      0.5000E-03 NODE         577   0.1%  0.1600E-15  0.5942       0.000      0.5936      0.1617       32.75       4.558    
   61300   30.65      0.5000E-03 NODE         577   0.1%  0.7107E-15  0.5942       0.000      0.5936      0.1617       32.75       4.558    
   61400   30.70      0.5000E-03 NODE         577   0.1%  0.7570E-15  0.5942       0.000      0.5936      0.1617       32.75       4.558    
   61500   30.75      0.5000E-03 NODE         577   0.1%  0.2046E-15  0.5942       0.000      0.5936      0.1617       32.75       4.558    
   61600   30.80      0.5000E-03 NODE         577   0.1%  0.8437E-15  0.5942       0.000      0.5936      0.1617       32.75       4.558    
   61700   30.85      0.5000E-03 NODE         577   0.1%  0.3193E-15  0.5942       0.000      0.5936      0.1617       32.75       4.558    
   61800   30.90      0.5000E-03 NODE         577   0.1%  0.5262E-15  0.5942       0.000      0.5936      0.1617       32.75       4.558    
   61900   30.95      0.5000E-03 NODE         577   0.1%  0.7459E-15  0.5942       0.000      0.5936      0.1617       32.75       4.558    
   62000   31.00      0.5000E-03 NODE         577   0.1%  0.3571E-15  0.5942       0.000      0.5936      0.1617       32.75       4.558    
   62100   31.05      0.5000E-03 NODE         577   0.1%  0.5880E-15  0.5942       0.000      0.5936      0.1617       32.75       4.558    
   62200   31.10      0.5000E-03 NODE         540   0.1%  0.6860E-15  0.5942       0.000      0.5936      0.1617       32.75       4.558    
   62300   31.15      0.5000E-03 NODE         540   0.1%  0.7288E-15  0.5942       0.000      0.5936      0.1617       32.75       4.558    
   62400   31.20      0.5000E-03 NODE         540   0.1%  0.5991E-15  0.5942       0.000      0.5936      0.1617       32.75       4.558    
   62500   31.25      0.5000E-03 NODE         540   0.1%  0.6029E-15  0.5942       0.000      0.5936      0.1617       32.75       4.558    
   62600   31.30      0.5000E-03 NODE         540   0.1%  0.3834E-15  0.5942       0.000      0.5936      0.1617       32.75       4.558    
   62700   31.35      0.5000E-03 NODE         540   0.1%  0.7621E-15  0.5942       0.000      0.5936      0.1617       32.75       4.558    
   62800   31.40      0.5000E-03 NODE         577   0.1%  0.4544E-15  0.5942       0.000      0.5936      0.1617       32.75       4.558    
   62900   31.45      0.5000E-03 NODE         542   0.1%  0.3612E-15  0.5942       0.000      0.5936      0.1617       32.75       4.558    
   63000   31.50      0.5000E-03 NODE         542   0.1%  0.7231E-15  0.5942       0.000      0.5936      0.1617       32.75       4.558    
   63100   31.55      0.5000E-03 NODE         542   0.1%  0.2133E-15  0.5942       0.000      0.5936      0.1617       32.75       4.558    
   63200   31.60      0.5000E-03 NODE         542   0.1%  0.8413E-15  0.5942       0.000      0.5936      0.1617       32.75       4.558    
   63300   31.65      0.5000E-03 NODE         542   0.1%  0.3526E-15  0.5942       0.000      0.5936      0.1617       32.75       4.558    
   63400   31.70      0.5000E-03 NODE         542   0.1%  0.4555E-15  0.5942       0.000      0.5936      0.1617       32.75       4.558    
   63500   31.75      0.5000E-03 NODE         543   0.1%  0.8518E-15  0.5942       0.000      0.5936      0.1617       32.75       4.558    
   63600   31.80      0.5000E-03 NODE         530   0.1%  0.1495E-15  0.5942       0.000      0.5936      0.1617       32.75       4.558    
   63700   31.85      0.5000E-03 NODE         573   0.1%  0.8246E-15  0.5942       0.000      0.5936      0.1617       32.75       4.558    
   63800   31.90      0.5000E-03 NODE         552   0.1%  0.4316E-15  0.5942       0.000      0.5936      0.1617       32.75       4.558    
   63900   31.95      0.5000E-03 NODE         552   0.1%  0.4603E-15  0.5942       0.000      0.5936      0.1617       32.75       4.558    
   64000   32.00      0.5000E-03 NODE         552   0.1%  0.6408E-15  0.5942       0.000      0.5936      0.1617       32.75       4.558    
   64100   32.05      0.5000E-03 NODE         552   0.1%  0.3160E-15  0.5942       0.000      0.5936      0.1617       32.75       4.558    
   64200   32.10      0.5000E-03 NODE         552   0.1%  0.6378E-15  0.5942       0.000      0.5936      0.1617       32.75       4.558    
   64300   32.15      0.5000E-03 NODE         552   0.1%  0.4226E-15  0.5942       0.000      0.5936      0.1617       32.75       4.558    
   64400   32.20      0.5000E-03 NODE         552   0.1%  0.5629E-15  0.5942       0.000      0.5936      0.1617       32.75       4.558    
   64500   32.25      0.5000E-03 NODE         550   0.1%  0.5144E-15  0.5942       0.000      0.5936      0.1617       32.75       4.558    
   64600   32.30      0.5000E-03 NODE         550   0.1%  0.5615E-15  0.5942       0.000      0.5936      0.1617       32.75       4.558    
   64700   32.35      0.5000E-03 NODE         550   0.1%  0.4078E-15  0.5942       0.000      0.5936      0.1617       32.75       4.558    
   64800   32.40      0.5000E-03 NODE         550   0.1%  0.6315E-15  0.5942       0.000      0.5936      0.1617       32.75       4.558    
   64900   32.45      0.5000E-03 NODE         550   0.1%  0.5232E-15  0.5942       0.000      0.5936      0.1617       32.75       4.558    
   65000   32.50      0.5000E-03 NODE         550   0.1%  0.2812E-15  0.5942       0.000      0.5936      0.1617       32.75       4.558    
   65100   32.55      0.5000E-03 NODE         550   0.1%  0.7115E-15  0.5942       0.000      0.5936      0.1617       32.75       4.558    
   65200   32.60      0.5000E-03 NODE         557   0.1%  0.2416E-15  0.5942       0.000      0.5936      0.1617       32.75       4.558    
   65300   32.65      0.5000E-03 NODE         557   0.1%  0.7983E-15  0.5942       0.000      0.5936      0.1617       32.75       4.558    
   65400   32.70      0.5000E-03 NODE         557   0.1%  0.4812E-15  0.5942       0.000      0.5936      0.1617       32.75       4.558    
   65500   32.75      0.5000E-03 NODE         557   0.1%  0.3338E-15  0.5942       0.000      0.5936      0.1617       32.75       4.558    
   65600   32.80      0.5000E-03 NODE         557   0.1%  0.8803E-15  0.5942       0.000      0.5936      0.1617       32.75       4.558    
   65700   32.85      0.5000E-03 NODE         557   0.1%  0.2091E-15  0.5942       0.000      0.5937      0.1617       32.75       4.558    
   65800   32.90      0.5000E-03 NODE         557   0.1%  0.1174E-14  0.5942       0.000      0.5937      0.1617       32.75       4.558    
   65900   32.95      0.5000E-03 NODE         557   0.1%  0.7854E-15  0.5942       0.000      0.5937      0.1617       32.75       4.558    
   CYCLE    TIME      TIME-STEP  ELEMENT          ERROR  I-ENERGY    K-ENERGY T  K-ENERGY R  EXT-WORK     MAS.ERR     TOTAL MASS  MASS ADDED
   66000   33.00      0.5000E-03 NODE         557   0.1%  0.2926E-15  0.5942       0.000      0.5937      0.1617       32.75       4.558    
     ANIMATION FILE: 001thermalA012 WRITTEN
   66100   33.05      0.5000E-03 NODE         557   0.1%  0.8053E-15  0.5942       0.000      0.5937      0.1617       32.75       4.558    
   66200   33.10      0.5000E-03 NODE         557   0.1%  0.2747E-15  0.5942       0.000      0.5937      0.1617       32.75       4.558    
   66300   33.15      0.5000E-03 NODE         557   0.1%  0.9016E-15  0.5942       0.000      0.5937      0.1617       32.75       4.558    
   66400   33.20      0.5000E-03 NODE         557   0.1%  0.6910E-15  0.5942       0.000      0.5937      0.1617       32.75       4.558    
   66500   33.25      0.5000E-03 NODE         557   0.1%  0.5021E-15  0.5942       0.000      0.5937      0.1617       32.75       4.558    
   66600   33.30      0.5000E-03 NODE         557   0.1%  0.8025E-15  0.5942       0.000      0.5937      0.1617       32.75       4.558    
   66700   33.35      0.5000E-03 NODE         557   0.1%  0.6419E-15  0.5942       0.000      0.5937      0.1617       32.75       4.558    
   66800   33.40      0.5000E-03 NODE         557   0.1%  0.6435E-15  0.5942       0.000      0.5937      0.1617       32.75       4.558    
   66900   33.45      0.5000E-03 NODE         557   0.1%  0.7338E-15  0.5942       0.000      0.5937      0.1617       32.75       4.558    
   67000   33.50      0.5000E-03 NODE         557   0.1%  0.6493E-15  0.5942       0.000      0.5937      0.1617       32.75       4.558    
   67100   33.55      0.5000E-03 NODE         557   0.1%  0.4378E-15  0.5942       0.000      0.5937      0.1617       32.75       4.558    
   67200   33.60      0.5000E-03 NODE         557   0.1%  0.8906E-15  0.5942       0.000      0.5937      0.1617       32.75       4.558    
   67300   33.65      0.5000E-03 NODE         557   0.1%  0.4238E-15  0.5942       0.000      0.5937      0.1617       32.75       4.558    
   67400   33.70      0.5000E-03 NODE         557   0.1%  0.8611E-15  0.5942       0.000      0.5937      0.1617       32.75       4.558    
   67500   33.75      0.5000E-03 NODE         557   0.1%  0.8080E-15  0.5942       0.000      0.5937      0.1617       32.75       4.558    
   67600   33.80      0.5000E-03 NODE         557   0.1%  0.2715E-15  0.5942       0.000      0.5937      0.1617       32.75       4.558    
   67700   33.85      0.5000E-03 NODE         557   0.1%  0.1103E-14  0.5942       0.000      0.5937      0.1617       32.75       4.558    
   67800   33.90      0.5000E-03 NODE         562   0.1%  0.2730E-15  0.5942       0.000      0.5937      0.1617       32.75       4.558    
   67900   33.95      0.5000E-03 NODE         562   0.1%  0.8613E-15  0.5942       0.000      0.5937      0.1617       32.75       4.558    
   68000   34.00      0.5000E-03 NODE         562   0.1%  0.8066E-15  0.5942       0.000      0.5937      0.1617       32.75       4.558    
   68100   34.05      0.5000E-03 NODE         562   0.1%  0.2658E-15  0.5942       0.000      0.5937      0.1617       32.75       4.558    
   68200   34.10      0.5000E-03 NODE         562   0.1%  0.1058E-14  0.5942       0.000      0.5937      0.1617       32.75       4.558    
   68300   34.15      0.5000E-03 NODE         562   0.1%  0.3174E-15  0.5942       0.000      0.5937      0.1617       32.75       4.558    
   68400   34.20      0.5000E-03 NODE         562   0.1%  0.8350E-15  0.5942       0.000      0.5937      0.1617       32.75       4.558    
   68500   34.25      0.5000E-03 NODE         562   0.1%  0.7883E-15  0.5942       0.000      0.5937      0.1617       32.75       4.558    
   68600   34.30      0.5000E-03 NODE         562   0.1%  0.4375E-15  0.5942       0.000      0.5937      0.1617       32.75       4.558    
   68700   34.35      0.5000E-03 NODE         562   0.1%  0.8289E-15  0.5942       0.000      0.5937      0.1617       32.75       4.558    
   68800   34.40      0.5000E-03 NODE         562   0.1%  0.5675E-15  0.5942       0.000      0.5937      0.1617       32.75       4.558    
   68900   34.45      0.5000E-03 NODE         562   0.1%  0.7583E-15  0.5942       0.000      0.5937      0.1617       32.75       4.558    
   69000   34.50      0.5000E-03 NODE         562   0.1%  0.7840E-15  0.5942       0.000      0.5937      0.1617       32.75       4.558    
   69100   34.55      0.5000E-03 NODE         562   0.1%  0.5931E-15  0.5942       0.000      0.5937      0.1617       32.75       4.558    
   69200   34.60      0.5000E-03 NODE         562   0.1%  0.4735E-15  0.5942       0.000      0.5937      0.1617       32.75       4.558    
   69300   34.65      0.5000E-03 NODE         562   0.1%  0.7684E-15  0.5942       0.000      0.5937      0.1617       32.75       4.558    
   69400   34.70      0.5000E-03 NODE         562   0.1%  0.4765E-15  0.5942       0.000      0.5937      0.1617       32.75       4.558    
   69500   34.75      0.5000E-03 NODE         562   0.1%  0.7606E-15  0.5942       0.000      0.5937      0.1617       32.75       4.558    
   69600   34.80      0.5000E-03 NODE         562   0.1%  0.7906E-15  0.5942       0.000      0.5937      0.1617       32.75       4.558    
   69700   34.85      0.5000E-03 NODE         562   0.1%  0.2574E-15  0.5942       0.000      0.5937      0.1617       32.75       4.558    
   69800   34.90      0.5000E-03 NODE         562   0.1%  0.1064E-14  0.5942       0.000      0.5937      0.1617       32.75       4.558    
   69900   34.95      0.5000E-03 NODE         562   0.1%  0.3470E-15  0.5942       0.000      0.5937      0.1617       32.75       4.558    
   70000   35.00      0.5000E-03 NODE         562   0.1%  0.7373E-15  0.5942       0.000      0.5937      0.1617       32.75       4.558    
   70100   35.05      0.5000E-03 NODE         562   0.1%  0.8708E-15  0.5942       0.000      0.5937      0.1617       32.75       4.558    
   70200   35.10      0.5000E-03 NODE         562   0.1%  0.1719E-15  0.5942       0.000      0.5937      0.1617       32.75       4.558    
   70300   35.15      0.5000E-03 NODE         562   0.1%  0.1038E-14  0.5942       0.000      0.5937      0.1617       32.75       4.558    
   70400   35.20      0.5000E-03 NODE         562   0.1%  0.3074E-15  0.5942       0.000      0.5937      0.1617       32.75       4.558    
   70500   35.25      0.5000E-03 NODE         562   0.1%  0.7273E-15  0.5942       0.000      0.5937      0.1617       32.75       4.558    
   70600   35.30      0.5000E-03 NODE         562   0.1%  0.8442E-15  0.5942       0.000      0.5937      0.1617       32.75       4.558    
   70700   35.35      0.5000E-03 NODE         562   0.1%  0.3347E-15  0.5942       0.000      0.5937      0.1617       32.75       4.558    
   70800   35.40      0.5000E-03 NODE         562   0.1%  0.9549E-15  0.5942       0.000      0.5937      0.1617       32.75       4.558    
   70900   35.45      0.5000E-03 NODE         562   0.1%  0.4576E-15  0.5942       0.000      0.5937      0.1617       32.75       4.558    
   71000   35.50      0.5000E-03 NODE         562   0.1%  0.6389E-15  0.5942       0.000      0.5937      0.1617       32.75       4.558    
   71100   35.55      0.5000E-03 NODE         562   0.1%  0.8011E-15  0.5942       0.000      0.5937      0.1617       32.75       4.558    
   71200   35.60      0.5000E-03 NODE         530   0.1%  0.5118E-15  0.5942       0.000      0.5937      0.1617       32.75       4.558    
   71300   35.65      0.5000E-03 NODE         538   0.1%  0.5703E-15  0.5942       0.000      0.5937      0.1617       32.75       4.558    
   71400   35.70      0.5000E-03 NODE         535   0.1%  0.7712E-15  0.5942       0.000      0.5937      0.1617       32.75       4.558    
   CYCLE    TIME      TIME-STEP  ELEMENT          ERROR  I-ENERGY    K-ENERGY T  K-ENERGY R  EXT-WORK     MAS.ERR     TOTAL MASS  MASS ADDED
   71500   35.75      0.5000E-03 NODE         550   0.1%  0.5026E-15  0.5942       0.000      0.5937      0.1617       32.75       4.558    
   71600   35.80      0.5000E-03 NODE         545   0.1%  0.6774E-15  0.5942       0.000      0.5937      0.1617       32.75       4.558    
   71700   35.85      0.5000E-03 NODE         530   0.1%  0.8400E-15  0.5942       0.000      0.5937      0.1617       32.75       4.558    
   71800   35.90      0.5000E-03 NODE         570   0.1%  0.2782E-15  0.5942       0.000      0.5937      0.1617       32.75       4.558    
   71900   35.95      0.5000E-03 NODE         535   0.1%  0.9695E-15  0.5942       0.000      0.5937      0.1617       32.75       4.558    
   72000   36.00      0.5000E-03 NODE         567   0.1%  0.4148E-15  0.5942       0.000      0.5937      0.1617       32.75       4.558    
     ANIMATION FILE: 001thermalA013 WRITTEN
   72100   36.05      0.5000E-03 NODE         567   0.1%  0.6423E-15  0.5942       0.000      0.5937      0.1617       32.75       4.558    
   72200   36.10      0.5000E-03 NODE         567   0.1%  0.1041E-14  0.5942       0.000      0.5937      0.1617       32.75       4.558    
   72300   36.15      0.5000E-03 NODE         567   0.1%  0.2011E-15  0.5942       0.000      0.5937      0.1617       32.75       4.558    
   72400   36.20      0.5000E-03 NODE         567   0.1%  0.1068E-14  0.5942       0.000      0.5937      0.1617       32.75       4.558    
   72500   36.25      0.5000E-03 NODE         567   0.1%  0.3984E-15  0.5942       0.000      0.5937      0.1617       32.75       4.558    
   72600   36.30      0.5000E-03 NODE         567   0.1%  0.6142E-15  0.5942       0.000      0.5937      0.1617       32.75       4.558    
   72700   36.35      0.5000E-03 NODE         567   0.1%  0.9321E-15  0.5942       0.000      0.5937      0.1617       32.75       4.558    
   72800   36.40      0.5000E-03 NODE         567   0.1%  0.2279E-15  0.5942       0.000      0.5937      0.1617       32.75       4.558    
   72900   36.45      0.5000E-03 NODE         567   0.1%  0.9861E-15  0.5942       0.000      0.5937      0.1617       32.75       4.558    
   73000   36.50      0.5000E-03 NODE         567   0.1%  0.5336E-15  0.5942       0.000      0.5937      0.1617       32.75       4.558    
   73100   36.55      0.5000E-03 NODE         567   0.1%  0.6029E-15  0.5942       0.000      0.5937      0.1617       32.75       4.558    
   73200   36.60      0.5000E-03 NODE         567   0.1%  0.9006E-15  0.5942       0.000      0.5937      0.1617       32.75       4.558    
   73300   36.65      0.5000E-03 NODE         567   0.1%  0.5528E-15  0.5942       0.000      0.5937      0.1617       32.75       4.558    
   73400   36.70      0.5000E-03 NODE         567   0.1%  0.5989E-15  0.5942       0.000      0.5937      0.1617       32.75       4.558    
   73500   36.75      0.5000E-03 NODE         567   0.1%  0.7242E-15  0.5942       0.000      0.5937      0.1617       32.75       4.558    
   73600   36.80      0.5000E-03 NODE         551   0.1%  0.5603E-15  0.5942       0.000      0.5938      0.1617       32.75       4.558    
   73700   36.85      0.5000E-03 NODE         567   0.1%  0.5992E-15  0.5942       0.000      0.5938      0.1617       32.75       4.558    
   73800   36.90      0.5000E-03 NODE         561   0.1%  0.8668E-15  0.5942       0.000      0.5938      0.1617       32.75       4.558    
   73900   36.95      0.5000E-03 NODE         570   0.1%  0.3814E-15  0.5942       0.000      0.5938      0.1617       32.75       4.558    
   74000   37.00      0.5000E-03 NODE         564   0.1%  0.9300E-15  0.5942       0.000      0.5938      0.1617       32.75       4.558    
   74100   37.05      0.5000E-03 NODE         534   0.1%  0.5572E-15  0.5942       0.000      0.5938      0.1617       32.75       4.558    
   74200   37.10      0.5000E-03 NODE         568   0.1%  0.5646E-15  0.5942       0.000      0.5938      0.1617       32.75       4.558    
   74300   37.15      0.5000E-03 NODE         561   0.1%  0.1046E-14  0.5942       0.000      0.5938      0.1617       32.75       4.558    
   74400   37.20      0.5000E-03 NODE         572   0.1%  0.1363E-15  0.5942       0.000      0.5938      0.1617       32.75       4.558    
   74500   37.25      0.5000E-03 NODE         572   0.1%  0.1029E-14  0.5942       0.000      0.5938      0.1617       32.75       4.558    
   74600   37.30      0.5000E-03 NODE         572   0.1%  0.5065E-15  0.5942       0.000      0.5938      0.1617       32.75       4.558    
   74700   37.35      0.5000E-03 NODE         572   0.1%  0.4630E-15  0.5942       0.000      0.5938      0.1617       32.75       4.558    
   74800   37.40      0.5000E-03 NODE         572   0.1%  0.1125E-14  0.5942       0.000      0.5938      0.1617       32.75       4.558    
   74900   37.45      0.5000E-03 NODE         572   0.1%  0.2235E-15  0.5942       0.000      0.5938      0.1617       32.75       4.558    
   75000   37.50      0.5000E-03 NODE         572   0.1%  0.9157E-15  0.5942       0.000      0.5938      0.1617       32.75       4.558    
   75100   37.55      0.5000E-03 NODE         572   0.1%  0.6274E-15  0.5942       0.000      0.5938      0.1617       32.75       4.558    
   75200   37.60      0.5000E-03 NODE         572   0.1%  0.5046E-15  0.5942       0.000      0.5938      0.1617       32.75       4.558    
   75300   37.65      0.5000E-03 NODE         572   0.1%  0.9005E-15  0.5942       0.000      0.5938      0.1617       32.75       4.558    
   75400   37.70      0.5000E-03 NODE         572   0.1%  0.5262E-15  0.5942       0.000      0.5938      0.1617       32.75       4.558    
   75500   37.75      0.5000E-03 NODE         572   0.1%  0.6938E-15  0.5942       0.000      0.5938      0.1617       32.75       4.558    
   75600   37.80      0.5000E-03 NODE         572   0.1%  0.8217E-15  0.5942       0.000      0.5938      0.1617       32.75       4.558    
   75700   37.85      0.5000E-03 NODE         572   0.1%  0.6273E-15  0.5942       0.000      0.5938      0.1617       32.75       4.558    
   75800   37.90      0.5000E-03 NODE         572   0.1%  0.6408E-15  0.5942       0.000      0.5938      0.1617       32.75       4.558    
   75900   37.95      0.5000E-03 NODE         572   0.1%  0.7540E-15  0.5942       0.000      0.5938      0.1617       32.75       4.558    
   76000   38.00      0.5000E-03 NODE         572   0.1%  0.4138E-15  0.5942       0.000      0.5938      0.1617       32.75       4.558    
   76100   38.05      0.5000E-03 NODE         572   0.1%  0.9961E-15  0.5942       0.000      0.5938      0.1617       32.75       4.558    
   76200   38.10      0.5000E-03 NODE         572   0.1%  0.6380E-15  0.5942       0.000      0.5938      0.1617       32.75       4.558    
   76300   38.15      0.5000E-03 NODE         572   0.1%  0.4738E-15  0.5942       0.000      0.5938      0.1617       32.75       4.558    
   76400   38.20      0.5000E-03 NODE         572   0.1%  0.1137E-14  0.5942       0.000      0.5938      0.1617       32.75       4.558    
   76500   38.25      0.5000E-03 NODE         572   0.1%  0.2155E-15  0.5942       0.000      0.5938      0.1617       32.75       4.558    
   76600   38.30      0.5000E-03 NODE         572   0.1%  0.9755E-15  0.5942       0.000      0.5938      0.1617       32.75       4.558    
   76700   38.35      0.5000E-03 NODE         572   0.1%  0.6407E-15  0.5942       0.000      0.5938      0.1617       32.75       4.558    
   76800   38.40      0.5000E-03 NODE         572   0.1%  0.3625E-15  0.5942       0.000      0.5938      0.1617       32.75       4.558    
   76900   38.45      0.5000E-03 NODE         572   0.1%  0.1174E-14  0.5942       0.000      0.5938      0.1617       32.75       4.558    
   CYCLE    TIME      TIME-STEP  ELEMENT          ERROR  I-ENERGY    K-ENERGY T  K-ENERGY R  EXT-WORK     MAS.ERR     TOTAL MASS  MASS ADDED
   77000   38.50      0.5000E-03 NODE         572   0.1%  0.2169E-15  0.5942       0.000      0.5938      0.1617       32.75       4.558    
   77100   38.55      0.5000E-03 NODE         572   0.1%  0.9708E-15  0.5942       0.000      0.5938      0.1617       32.75       4.558    
   77200   38.60      0.5000E-03 NODE         572   0.1%  0.7620E-15  0.5942       0.000      0.5938      0.1617       32.75       4.558    
   77300   38.65      0.5000E-03 NODE         572   0.1%  0.4554E-15  0.5942       0.000      0.5938      0.1617       32.75       4.558    
   77400   38.70      0.5000E-03 NODE         572   0.1%  0.1014E-14  0.5942       0.000      0.5938      0.1617       32.75       4.558    
   77500   38.75      0.5000E-03 NODE         572   0.1%  0.4849E-15  0.5942       0.000      0.5938      0.1617       32.75       4.558    
   77600   38.80      0.5000E-03 NODE         572   0.1%  0.7535E-15  0.5942       0.000      0.5938      0.1617       32.75       4.558    
   77700   38.85      0.5000E-03 NODE         572   0.1%  0.7558E-15  0.5942       0.000      0.5938      0.1617       32.75       4.558    
   77800   38.90      0.5000E-03 NODE         577   0.1%  0.5448E-15  0.5942       0.000      0.5938      0.1617       32.75       4.558    
   77900   38.95      0.5000E-03 NODE         577   0.1%  0.7345E-15  0.5942       0.000      0.5938      0.1617       32.75       4.558    
   78000   39.00      0.5000E-03 NODE         577   0.1%  0.7850E-15  0.5942       0.000      0.5938      0.1617       32.75       4.558    
     ANIMATION FILE: 001thermalA014 WRITTEN
   78100   39.05      0.5000E-03 NODE         577   0.1%  0.4815E-15  0.5942       0.000      0.5938      0.1617       32.75       4.558    
   78200   39.10      0.5000E-03 NODE         577   0.1%  0.9668E-15  0.5942       0.000      0.5938      0.1617       32.75       4.558    
   78300   39.15      0.5000E-03 NODE         577   0.1%  0.6852E-15  0.5942       0.000      0.5938      0.1617       32.75       4.558    
   78400   39.20      0.5000E-03 NODE         577   0.1%  0.4026E-15  0.5942       0.000      0.5938      0.1617       32.75       4.558    
   78500   39.25      0.5000E-03 NODE         577   0.1%  0.1133E-14  0.5942       0.000      0.5938      0.1617       32.75       4.558    
   78600   39.30      0.5000E-03 NODE         577   0.1%  0.2632E-15  0.5942       0.000      0.5938      0.1617       32.75       4.558    
   78700   39.35      0.5000E-03 NODE         577   0.1%  0.8817E-15  0.5942       0.000      0.5938      0.1617       32.75       4.558    
   78800   39.40      0.5000E-03 NODE         577   0.1%  0.7893E-15  0.5942       0.000      0.5938      0.1617       32.75       4.558    
   78900   39.45      0.5000E-03 NODE         577   0.1%  0.3318E-15  0.5942       0.000      0.5938      0.1617       32.75       4.558    
   79000   39.50      0.5000E-03 NODE         577   0.1%  0.1108E-14  0.5942       0.000      0.5938      0.1617       32.75       4.558    
   79100   39.55      0.5000E-03 NODE         577   0.1%  0.2278E-15  0.5942       0.000      0.5938      0.1617       32.75       4.558    
   79200   39.60      0.5000E-03 NODE         577   0.1%  0.1175E-14  0.5942       0.000      0.5938      0.1617       32.75       4.558    
   79300   39.65      0.5000E-03 NODE         577   0.1%  0.1009E-14  0.5942       0.000      0.5938      0.1617       32.75       4.558    
   79400   39.70      0.5000E-03 NODE         577   0.1%  0.2738E-15  0.5942       0.000      0.5938      0.1617       32.75       4.558    
   79500   39.75      0.5000E-03 NODE         577   0.1%  0.1125E-14  0.5942       0.000      0.5938      0.1617       32.75       4.558    
   79600   39.80      0.5000E-03 NODE         577   0.1%  0.4279E-15  0.5942       0.000      0.5938      0.1617       32.75       4.558    
   79700   39.85      0.5000E-03 NODE         577   0.1%  0.8295E-15  0.5942       0.000      0.5938      0.1617       32.75       4.558    
   79800   39.90      0.5000E-03 NODE         577   0.1%  0.9590E-15  0.5942       0.000      0.5938      0.1617       32.75       4.558    
   79900   39.95      0.5000E-03 NODE         577   0.1%  0.4381E-15  0.5942       0.000      0.5938      0.1617       32.75       4.558    
   80000   40.00      0.5000E-03 NODE         577   0.1%  0.9271E-15  0.5942       0.000      0.5938      0.1617       32.75       4.558    
   80100   40.05      0.5000E-03 NODE         577   0.1%  0.8169E-15  0.5942       0.000      0.5938      0.1617       32.75       4.558    
   80200   40.10      0.5000E-03 NODE         577   0.1%  0.5117E-15  0.5942       0.000      0.5938      0.1617       32.75       4.558    
   80300   40.15      0.5000E-03 NODE         577   0.1%  0.1050E-14  0.5942       0.000      0.5938      0.1617       32.75       4.558    
   80400   40.20      0.5000E-03 NODE         540   0.1%  0.5288E-15  0.5942       0.000      0.5938      0.1617       32.75       4.558    
   80500   40.25      0.5000E-03 NODE         540   0.1%  0.7376E-15  0.5942       0.000      0.5938      0.1617       32.75       4.558    
   80600   40.30      0.5000E-03 NODE         540   0.1%  0.1391E-14  0.5942       0.000      0.5938      0.1617       32.75       4.558    
   80700   40.35      0.5000E-03 NODE         540   0.1%  0.6495E-15  0.5942       0.000      0.5938      0.1617       32.75       4.558    
   80800   40.40      0.5000E-03 NODE         540   0.1%  0.6497E-15  0.5942       0.000      0.5938      0.1617       32.75       4.558    
   80900   40.45      0.5000E-03 NODE         540   0.1%  0.7443E-15  0.5942       0.000      0.5938      0.1617       32.75       4.558    
   81000   40.50      0.5000E-03 NODE         577   0.1%  0.2174E-15  0.5942       0.000      0.5938      0.1617       32.75       4.558    
   81100   40.55      0.5000E-03 NODE         542   0.1%  0.1174E-14  0.5942       0.000      0.5938      0.1617       32.75       4.558    
   81200   40.60      0.5000E-03 NODE         542   0.1%  0.4004E-15  0.5942       0.000      0.5939      0.1617       32.75       4.558    
   81300   40.65      0.5000E-03 NODE         542   0.1%  0.6970E-15  0.5942       0.000      0.5939      0.1617       32.75       4.558    
   81400   40.70      0.5000E-03 NODE         542   0.1%  0.9550E-15  0.5942       0.000      0.5939      0.1617       32.75       4.558    
   81500   40.75      0.5000E-03 NODE         542   0.1%  0.2325E-15  0.5942       0.000      0.5939      0.1617       32.75       4.558    
   81600   40.80      0.5000E-03 NODE         542   0.0%  0.1106E-14  0.5942       0.000      0.5939      0.1617       32.75       4.558    
   81700   40.85      0.5000E-03 NODE         530   0.0%  0.3960E-15  0.5942       0.000      0.5939      0.1617       32.75       4.558    
   81800   40.90      0.5000E-03 NODE         531   0.0%  0.6522E-15  0.5942       0.000      0.5939      0.1617       32.75       4.558    
   81900   40.95      0.5000E-03 NODE         535   0.0%  0.8358E-15  0.5942       0.000      0.5939      0.1617       32.75       4.558    
   82000   41.00      0.5000E-03 NODE         552   0.0%  0.2899E-15  0.5942       0.000      0.5939      0.1617       32.75       4.558    
   82100   41.05      0.5000E-03 NODE         552   0.0%  0.9403E-15  0.5942       0.000      0.5939      0.1617       32.75       4.558    
   82200   41.10      0.5000E-03 NODE         552   0.0%  0.6746E-15  0.5942       0.000      0.5939      0.1617       32.75       4.558    
   82300   41.15      0.5000E-03 NODE         552   0.0%  0.6084E-15  0.5942       0.000      0.5939      0.1617       32.75       4.558    
   82400   41.20      0.5000E-03 NODE         552   0.0%  0.7913E-15  0.5942       0.000      0.5939      0.1617       32.75       4.558    
   CYCLE    TIME      TIME-STEP  ELEMENT          ERROR  I-ENERGY    K-ENERGY T  K-ENERGY R  EXT-WORK     MAS.ERR     TOTAL MASS  MASS ADDED
   82500   41.25      0.5000E-03 NODE         552   0.0%  0.6158E-15  0.5942       0.000      0.5939      0.1617       32.75       4.558    
   82600   41.30      0.5000E-03 NODE         552   0.0%  0.5469E-15  0.5942       0.000      0.5939      0.1617       32.75       4.558    
   82700   41.35      0.5000E-03 NODE         550   0.0%  0.9060E-15  0.5942       0.000      0.5939      0.1617       32.75       4.558    
   82800   41.40      0.5000E-03 NODE         550   0.0%  0.5620E-15  0.5942       0.000      0.5939      0.1617       32.75       4.558    
   82900   41.45      0.5000E-03 NODE         550   0.0%  0.6930E-15  0.5942       0.000      0.5939      0.1617       32.75       4.558    
   83000   41.50      0.5000E-03 NODE         550   0.0%  0.8226E-15  0.5942       0.000      0.5939      0.1617       32.75       4.558    
   83100   41.55      0.5000E-03 NODE         550   0.0%  0.2757E-15  0.5942       0.000      0.5939      0.1617       32.75       4.558    
   83200   41.60      0.5000E-03 NODE         550   0.0%  0.1184E-14  0.5942       0.000      0.5939      0.1617       32.75       4.558    
   83300   41.65      0.5000E-03 NODE         557   0.0%  0.4938E-15  0.5942       0.000      0.5939      0.1617       32.75       4.558    
   83400   41.70      0.5000E-03 NODE         557   0.0%  0.6240E-15  0.5942       0.000      0.5939      0.1617       32.75       4.558    
   83500   41.75      0.5000E-03 NODE         557   0.0%  0.1088E-14  0.5942       0.000      0.5939      0.1617       32.75       4.558    
   83600   41.80      0.5000E-03 NODE         557   0.0%  0.1540E-15  0.5942       0.000      0.5939      0.1617       32.75       4.558    
   83700   41.85      0.5000E-03 NODE         557   0.0%  0.1634E-14  0.5942       0.000      0.5939      0.1617       32.75       4.558    
   83800   41.90      0.5000E-03 NODE         557   0.0%  0.9007E-15  0.5942       0.000      0.5939      0.1617       32.75       4.558    
   83900   41.95      0.5000E-03 NODE         557   0.0%  0.4633E-15  0.5942       0.000      0.5939      0.1617       32.75       4.558    
   84000   42.00      0.5000E-03 NODE         557   0.0%  0.1044E-14  0.5942       0.000      0.5939      0.1617       32.75       4.558    
     ANIMATION FILE: 001thermalA015 WRITTEN
   84100   42.05      0.5000E-03 NODE         557   0.0%  0.2419E-15  0.5942       0.000      0.5939      0.1617       32.75       4.558    
   84200   42.10      0.5000E-03 NODE         557   0.0%  0.1232E-14  0.5942       0.000      0.5939      0.1617       32.75       4.558    
   84300   42.15      0.5000E-03 NODE         557   0.0%  0.9971E-15  0.5942       0.000      0.5939      0.1617       32.75       4.558    
   84400   42.20      0.5000E-03 NODE         557   0.0%  0.5110E-15  0.5942       0.000      0.5939      0.1617       32.75       4.558    
   84500   42.25      0.5000E-03 NODE         557   0.0%  0.1033E-14  0.5942       0.000      0.5939      0.1617       32.75       4.558    
   84600   42.30      0.5000E-03 NODE         557   0.0%  0.6492E-15  0.5942       0.000      0.5939      0.1617       32.75       4.558    
   84700   42.35      0.5000E-03 NODE         557   0.0%  0.6986E-15  0.5942       0.000      0.5939      0.1617       32.75       4.558    
   84800   42.40      0.5000E-03 NODE         557   0.0%  0.1002E-14  0.5942       0.000      0.5939      0.1617       32.75       4.558    
   84900   42.45      0.5000E-03 NODE         557   0.0%  0.6721E-15  0.5942       0.000      0.5939      0.1617       32.75       4.558    
   85000   42.50      0.5000E-03 NODE         557   0.0%  0.8385E-15  0.5942       0.000      0.5939      0.1617       32.75       4.558    
   85100   42.55      0.5000E-03 NODE         557   0.0%  0.1004E-14  0.5942       0.000      0.5939      0.1617       32.75       4.558    
   85200   42.60      0.5000E-03 NODE         557   0.0%  0.3702E-15  0.5942       0.000      0.5939      0.1617       32.75       4.558    
   85300   42.65      0.5000E-03 NODE         557   0.0%  0.1191E-14  0.5942       0.000      0.5939      0.1617       32.75       4.558    
   85400   42.70      0.5000E-03 NODE         557   0.0%  0.7590E-15  0.5942       0.000      0.5939      0.1617       32.75       4.558    
   85500   42.75      0.5000E-03 NODE         557   0.0%  0.6080E-15  0.5942       0.000      0.5939      0.1617       32.75       4.558    
   85600   42.80      0.5000E-03 NODE         557   0.0%  0.1353E-14  0.5942       0.000      0.5939      0.1617       32.75       4.558    
   85700   42.85      0.5000E-03 NODE         557   0.0%  0.1970E-15  0.5942       0.000      0.5939      0.1617       32.75       4.558    
   85800   42.90      0.5000E-03 NODE         557   0.0%  0.1235E-14  0.5942       0.000      0.5939      0.1617       32.75       4.558    
   85900   42.95      0.5000E-03 NODE         557   0.0%  0.9099E-15  0.5942       0.000      0.5939      0.1617       32.75       4.558    
   86000   43.00      0.5000E-03 NODE         562   0.0%  0.3859E-15  0.5942       0.000      0.5939      0.1617       32.75       4.558    
   86100   43.05      0.5000E-03 NODE         562   0.0%  0.1386E-14  0.5942       0.000      0.5939      0.1617       32.75       4.558    
   86200   43.10      0.5000E-03 NODE         562   0.0%  0.3092E-15  0.5942       0.000      0.5939      0.1617       32.75       4.558    
   86300   43.15      0.5000E-03 NODE         562   0.0%  0.9694E-15  0.5942       0.000      0.5939      0.1617       32.75       4.558    
   86400   43.20      0.5000E-03 NODE         562   0.0%  0.1032E-14  0.5942       0.000      0.5939      0.1617       32.75       4.558    
   86500   43.25      0.5000E-03 NODE         562   0.0%  0.5288E-15  0.5942       0.000      0.5939      0.1617       32.75       4.558    
   86600   43.30      0.5000E-03 NODE         562   0.0%  0.1159E-14  0.5942       0.000      0.5939      0.1617       32.75       4.558    
   86700   43.35      0.5000E-03 NODE         562   0.0%  0.6191E-15  0.5942       0.000      0.5939      0.1617       32.75       4.558    
   86800   43.40      0.5000E-03 NODE         562   0.0%  0.7040E-15  0.5942       0.000      0.5939      0.1617       32.75       4.558    
   86900   43.45      0.5000E-03 NODE         562   0.0%  0.1062E-14  0.5942       0.000      0.5939      0.1617       32.75       4.558    
   87000   43.50      0.5000E-03 NODE         562   0.0%  0.6658E-15  0.5942       0.000      0.5939      0.1617       32.75       4.558    
   87100   43.55      0.5000E-03 NODE         562   0.0%  0.8265E-15  0.5942       0.000      0.5939      0.1617       32.75       4.558    
   87200   43.60      0.5000E-03 NODE         562   0.0%  0.9576E-15  0.5942       0.000      0.5939      0.1617       32.75       4.558    
   87300   43.65      0.5000E-03 NODE         562   0.0%  0.4572E-15  0.5942       0.000      0.5939      0.1617       32.75       4.558    
   87400   43.70      0.5000E-03 NODE         562   0.0%  0.1170E-14  0.5942       0.000      0.5939      0.1617       32.75       4.558    
   87500   43.75      0.5000E-03 NODE         562   0.0%  0.7380E-15  0.5942       0.000      0.5939      0.1617       32.75       4.558    
   87600   43.80      0.5000E-03 NODE         562   0.0%  0.5274E-15  0.5942       0.000      0.5939      0.1617       32.75       4.558    
   87700   43.85      0.5000E-03 NODE         562   0.0%  0.1328E-14  0.5942       0.000      0.5939      0.1617       32.75       4.558    
   87800   43.90      0.5000E-03 NODE         562   0.0%  0.2245E-15  0.5942       0.000      0.5939      0.1617       32.75       4.558    
   87900   43.95      0.5000E-03 NODE         562   0.0%  0.1063E-14  0.5942       0.000      0.5939      0.1617       32.75       4.558    
   CYCLE    TIME      TIME-STEP  ELEMENT          ERROR  I-ENERGY    K-ENERGY T  K-ENERGY R  EXT-WORK     MAS.ERR     TOTAL MASS  MASS ADDED
   88000   44.00      0.5000E-03 NODE         562   0.0%  0.9996E-15  0.5942       0.000      0.5939      0.1617       32.75       4.558    
   88100   44.05      0.5000E-03 NODE         562   0.0%  0.3809E-15  0.5942       0.000      0.5939      0.1617       32.75       4.558    
   88200   44.10      0.5000E-03 NODE         562   0.0%  0.1398E-14  0.5942       0.000      0.5939      0.1617       32.75       4.558    
   88300   44.15      0.5000E-03 NODE         562   0.0%  0.3588E-15  0.5942       0.000      0.5940      0.1617       32.75       4.558    
   88400   44.20      0.5000E-03 NODE         562   0.0%  0.8582E-15  0.5942       0.000      0.5940      0.1617       32.75       4.558    
   88500   44.25      0.5000E-03 NODE         562   0.0%  0.9795E-15  0.5942       0.000      0.5940      0.1617       32.75       4.558    
   88600   44.30      0.5000E-03 NODE         562   0.0%  0.4205E-15  0.5942       0.000      0.5940      0.1617       32.75       4.558    
   88700   44.35      0.5000E-03 NODE         562   0.0%  0.1251E-14  0.5942       0.000      0.5940      0.1617       32.75       4.558    
   88800   44.40      0.5000E-03 NODE         562   0.0%  0.5910E-15  0.5942       0.000      0.5940      0.1617       32.75       4.558    
   88900   44.45      0.5000E-03 NODE         562   0.0%  0.7491E-15  0.5942       0.000      0.5940      0.1617       32.75       4.558    
   89000   44.50      0.5000E-03 NODE         562   0.0%  0.1112E-14  0.5942       0.000      0.5940      0.1617       32.75       4.558    
   89100   44.55      0.5000E-03 NODE         562   0.0%  0.5574E-15  0.5942       0.000      0.5940      0.1617       32.75       4.558    
   89200   44.60      0.5000E-03 NODE         562   0.0%  0.9122E-15  0.5942       0.000      0.5940      0.1617       32.75       4.558    
   89300   44.65      0.5000E-03 NODE         535   0.0%  0.9847E-15  0.5942       0.000      0.5940      0.1617       32.75       4.558    
   89400   44.70      0.5000E-03 NODE         550   0.0%  0.3962E-15  0.5942       0.000      0.5940      0.1617       32.75       4.558    
   89500   44.75      0.5000E-03 NODE         545   0.0%  0.1043E-14  0.5942       0.000      0.5940      0.1617       32.75       4.558    
   89600   44.80      0.5000E-03 NODE         533   0.0%  0.8773E-15  0.5942       0.000      0.5940      0.1617       32.75       4.558    
   89700   44.85      0.5000E-03 NODE         537   0.0%  0.4804E-15  0.5942       0.000      0.5940      0.1617       32.75       4.558    
   89800   44.90      0.5000E-03 NODE         535   0.0%  0.1331E-14  0.5942       0.000      0.5940      0.1617       32.75       4.558    
   89900   44.95      0.5000E-03 NODE         531   0.0%  0.3818E-15  0.5942       0.000      0.5940      0.1617       32.75       4.558    
   90000   45.00      0.5000E-03 NODE         545   0.0%  0.8764E-15  0.5942       0.000      0.5940      0.1617       32.75       4.558    
     ANIMATION FILE: 001thermalA016 WRITTEN
   90100   45.05      0.5000E-03 NODE         573   0.0%  0.1059E-14  0.5942       0.000      0.5940      0.1617       32.75       4.558    
   90200   45.10      0.5000E-03 NODE         567   0.0%  0.3371E-15  0.5942       0.000      0.5940      0.1617       32.75       4.558    
   90300   45.15      0.5000E-03 NODE         567   0.0%  0.1417E-14  0.5942       0.000      0.5940      0.1617       32.75       4.558    
   90400   45.20      0.5000E-03 NODE         567   0.0%  0.4802E-15  0.5942       0.000      0.5940      0.1617       32.75       4.558    
   90500   45.25      0.5000E-03 NODE         567   0.0%  0.8153E-15  0.5942       0.000      0.5940      0.1617       32.75       4.558    
   90600   45.30      0.5000E-03 NODE         567   0.0%  0.1150E-14  0.5942       0.000      0.5940      0.1617       32.75       4.558    
   90700   45.35      0.5000E-03 NODE         567   0.0%  0.3175E-15  0.5942       0.000      0.5940      0.1617       32.75       4.558    
   90800   45.40      0.5000E-03 NODE         567   0.0%  0.1271E-14  0.5942       0.000      0.5940      0.1617       32.75       4.558    
   90900   45.45      0.5000E-03 NODE         567   0.0%  0.6584E-15  0.5942       0.000      0.5940      0.1617       32.75       4.558    
   91000   45.50      0.5000E-03 NODE         567   0.0%  0.6172E-15  0.5942       0.000      0.5940      0.1617       32.75       4.558    
   91100   45.55      0.5000E-03 NODE         567   0.0%  0.1162E-14  0.5942       0.000      0.5940      0.1617       32.75       4.558    
   91200   45.60      0.5000E-03 NODE         567   0.0%  0.5973E-15  0.5942       0.000      0.5940      0.1617       32.75       4.558    
   91300   45.65      0.5000E-03 NODE         567   0.0%  0.9483E-15  0.5942       0.000      0.5940      0.1617       32.75       4.558    
   91400   45.70      0.5000E-03 NODE         567   0.0%  0.1093E-14  0.5942       0.000      0.5940      0.1617       32.75       4.558    
   91500   45.75      0.5000E-03 NODE         567   0.0%  0.5152E-15  0.5942       0.000      0.5940      0.1617       32.75       4.558    
   91600   45.80      0.5000E-03 NODE         567   0.0%  0.9374E-15  0.5942       0.000      0.5940      0.1617       32.75       4.558    
   91700   45.85      0.5000E-03 NODE         567   0.0%  0.8817E-15  0.5942       0.000      0.5940      0.1617       32.75       4.558    
   91800   45.90      0.5000E-03 NODE         537   0.0%  0.5106E-15  0.5942       0.000      0.5940      0.1617       32.75       4.558    
   91900   45.95      0.5000E-03 NODE         564   0.0%  0.1269E-14  0.5942       0.000      0.5940      0.1617       32.75       4.558    
   92000   46.00      0.5000E-03 NODE         538   0.0%  0.5340E-15  0.5942       0.000      0.5940      0.1617       32.75       4.558    
   92100   46.05      0.5000E-03 NODE         567   0.0%  0.8441E-15  0.5942       0.000      0.5940      0.1617       32.75       4.558    
   92200   46.10      0.5000E-03 NODE         548   0.0%  0.1146E-14  0.5942       0.000      0.5940      0.1617       32.75       4.558    
   92300   46.15      0.5000E-03 NODE         537   0.0%  0.3717E-15  0.5942       0.000      0.5940      0.1617       32.75       4.558    
   92400   46.20      0.5000E-03 NODE         537   0.0%  0.1429E-14  0.5942       0.000      0.5940      0.1617       32.75       4.558    
   92500   46.25      0.5000E-03 NODE         549   0.0%  0.5182E-15  0.5942       0.000      0.5940      0.1617       32.75       4.558    
   92600   46.30      0.5000E-03 NODE         572   0.0%  0.6751E-15  0.5942       0.000      0.5940      0.1617       32.75       4.558    
   92700   46.35      0.5000E-03 NODE         572   0.0%  0.1242E-14  0.5942       0.000      0.5940      0.1617       32.75       4.558    
   92800   46.40      0.5000E-03 NODE         572   0.0%  0.2492E-15  0.5942       0.000      0.5940      0.1617       32.75       4.558    
   92900   46.45      0.5000E-03 NODE         572   0.0%  0.1290E-14  0.5942       0.000      0.5940      0.1617       32.75       4.558    
   93000   46.50      0.5000E-03 NODE         572   0.0%  0.8508E-15  0.5942       0.000      0.5940      0.1617       32.75       4.558    
   93100   46.55      0.5000E-03 NODE         572   0.0%  0.5533E-15  0.5942       0.000      0.5940      0.1617       32.75       4.558    
   93200   46.60      0.5000E-03 NODE         572   0.0%  0.1141E-14  0.5942       0.000      0.5940      0.1617       32.75       4.558    
   93300   46.65      0.5000E-03 NODE         572   0.0%  0.5884E-15  0.5942       0.000      0.5940      0.1617       32.75       4.558    
   93400   46.70      0.5000E-03 NODE         572   0.0%  0.8875E-15  0.5942       0.000      0.5940      0.1617       32.75       4.558    
   CYCLE    TIME      TIME-STEP  ELEMENT          ERROR  I-ENERGY    K-ENERGY T  K-ENERGY R  EXT-WORK     MAS.ERR     TOTAL MASS  MASS ADDED
   93500   46.75      0.5000E-03 NODE         572   0.0%  0.1010E-14  0.5942       0.000      0.5940      0.1617       32.75       4.558    
   93600   46.80      0.5000E-03 NODE         572   0.0%  0.6197E-15  0.5942       0.000      0.5940      0.1617       32.75       4.558    
   93700   46.85      0.5000E-03 NODE         572   0.0%  0.9328E-15  0.5942       0.000      0.5940      0.1617       32.75       4.558    
   93800   46.90      0.5000E-03 NODE         572   0.0%  0.8372E-15  0.5942       0.000      0.5940      0.1617       32.75       4.558    
   93900   46.95      0.5000E-03 NODE         572   0.0%  0.6274E-15  0.5942       0.000      0.5940      0.1617       32.75       4.558    
   94000   47.00      0.5000E-03 NODE         572   0.0%  0.1402E-14  0.5942       0.000      0.5940      0.1617       32.75       4.558    
   94100   47.05      0.5000E-03 NODE         572   0.0%  0.6087E-15  0.5942       0.000      0.5940      0.1617       32.75       4.558    
   94200   47.10      0.5000E-03 NODE         572   0.0%  0.7649E-15  0.5942       0.000      0.5940      0.1617       32.75       4.558    
   94300   47.15      0.5000E-03 NODE         572   0.0%  0.1189E-14  0.5942       0.000      0.5940      0.1617       32.75       4.558    
   94400   47.20      0.5000E-03 NODE         572   0.0%  0.2879E-15  0.5942       0.000      0.5940      0.1617       32.75       4.558    
   94500   47.25      0.5000E-03 NODE         572   0.0%  0.1510E-14  0.5942       0.000      0.5940      0.1617       32.75       4.558    
   94600   47.30      0.5000E-03 NODE         572   0.0%  0.7358E-15  0.5942       0.000      0.5940      0.1617       32.75       4.558    
   94700   47.35      0.5000E-03 NODE         572   0.0%  0.6148E-15  0.5942       0.000      0.5940      0.1617       32.75       4.558    
   94800   47.40      0.5000E-03 NODE         572   0.0%  0.1410E-14  0.5942       0.000      0.5940      0.1617       32.75       4.558    
   94900   47.45      0.5000E-03 NODE         572   0.0%  0.2494E-15  0.5942       0.000      0.5940      0.1617       32.75       4.558    
   95000   47.50      0.5000E-03 NODE         572   0.0%  0.1247E-14  0.5942       0.000      0.5940      0.1617       32.75       4.558    
   95100   47.55      0.5000E-03 NODE         572   0.0%  0.9255E-15  0.5942       0.000      0.5940      0.1617       32.75       4.558    
   95200   47.60      0.5000E-03 NODE         572   0.0%  0.5352E-15  0.5942       0.000      0.5940      0.1617       32.75       4.558    
   95300   47.65      0.5000E-03 NODE         572   0.0%  0.1290E-14  0.5942       0.000      0.5940      0.1617       32.75       4.558    
   95400   47.70      0.5000E-03 NODE         572   0.0%  0.5523E-15  0.5942       0.000      0.5940      0.1617       32.75       4.558    
   95500   47.75      0.5000E-03 NODE         572   0.0%  0.1041E-14  0.5942       0.000      0.5940      0.1617       32.75       4.558    
   95600   47.80      0.5000E-03 NODE         572   0.0%  0.1176E-14  0.5942       0.000      0.5940      0.1617       32.75       4.558    
   95700   47.85      0.5000E-03 NODE         572   0.0%  0.5681E-15  0.5942       0.000      0.5940      0.1617       32.75       4.558    
   95800   47.90      0.5000E-03 NODE         572   0.0%  0.1011E-14  0.5942       0.000      0.5940      0.1617       32.75       4.558    
   95900   47.95      0.5000E-03 NODE         572   0.0%  0.8477E-15  0.5942       0.000      0.5940      0.1617       32.75       4.558    
   96000   48.00      0.5000E-03 NODE         577   0.0%  0.5910E-15  0.5942       0.000      0.5940      0.1617       32.75       4.558    
     ANIMATION FILE: 001thermalA017 WRITTEN
   96100   48.05      0.5000E-03 NODE         577   0.0%  0.1369E-14  0.5942       0.000      0.5940      0.1617       32.75       4.558    
   96200   48.10      0.5000E-03 NODE         577   0.0%  0.6926E-15  0.5942       0.000      0.5940      0.1617       32.75       4.558    
   96300   48.15      0.5000E-03 NODE         577   0.0%  0.7916E-15  0.5942       0.000      0.5940      0.1617       32.75       4.558    
   96400   48.20      0.5000E-03 NODE         577   0.0%  0.1267E-14  0.5942       0.000      0.5940      0.1617       32.75       4.558    
   96500   48.25      0.5000E-03 NODE         577   0.0%  0.2799E-15  0.5942       0.000      0.5940      0.1617       32.75       4.558    
   96600   48.30      0.5000E-03 NODE         577   0.0%  0.1450E-14  0.5942       0.000      0.5940      0.1617       32.75       4.558    
   96700   48.35      0.5000E-03 NODE         577   0.0%  0.8664E-15  0.5942       0.000      0.5940      0.1617       32.75       4.558    
   96800   48.40      0.5000E-03 NODE         577   0.0%  0.5156E-15  0.5942       0.000      0.5940      0.1617       32.75       4.558    
   96900   48.45      0.5000E-03 NODE         577   0.0%  0.1477E-14  0.5942       0.000      0.5940      0.1617       32.75       4.558    
   97000   48.50      0.5000E-03 NODE         577   0.0%  0.2889E-15  0.5942       0.000      0.5940      0.1617       32.75       4.558    
   97100   48.55      0.5000E-03 NODE         577   0.0%  0.1690E-14  0.5942       0.000      0.5941      0.1617       32.75       4.558    
   97200   48.60      0.5000E-03 NODE         577   0.0%  0.1328E-14  0.5942       0.000      0.5941      0.1617       32.75       4.558    
   97300   48.65      0.5000E-03 NODE         577   0.0%  0.4420E-15  0.5942       0.000      0.5941      0.1617       32.75       4.558    
   97400   48.70      0.5000E-03 NODE         577   0.0%  0.1263E-14  0.5942       0.000      0.5941      0.1617       32.75       4.558    
   97500   48.75      0.5000E-03 NODE         577   0.0%  0.3865E-15  0.5942       0.000      0.5941      0.1617       32.75       4.558    
   97600   48.80      0.5000E-03 NODE         577   0.0%  0.1212E-14  0.5942       0.000      0.5941      0.1617       32.75       4.558    
   97700   48.85      0.5000E-03 NODE         577   0.0%  0.1453E-14  0.5942       0.000      0.5941      0.1617       32.75       4.558    
   97800   48.90      0.5000E-03 NODE         577   0.0%  0.4730E-15  0.5942       0.000      0.5941      0.1617       32.75       4.558    
   97900   48.95      0.5000E-03 NODE         577   0.0%  0.1256E-14  0.5942       0.000      0.5941      0.1617       32.75       4.558    
   98000   49.00      0.5000E-03 NODE         577   0.0%  0.9365E-15  0.5942       0.000      0.5941      0.1617       32.75       4.558    
   98100   49.05      0.5000E-03 NODE         577   0.0%  0.5701E-15  0.5942       0.000      0.5941      0.1617       32.75       4.558    
   98200   49.10      0.5000E-03 NODE         577   0.0%  0.1545E-14  0.5942       0.000      0.5941      0.1617       32.75       4.558    
   98300   49.15      0.5000E-03 NODE         577   0.0%  0.6394E-15  0.5942       0.000      0.5941      0.1617       32.75       4.558    
   98400   49.20      0.5000E-03 NODE         577   0.0%  0.8669E-15  0.5942       0.000      0.5941      0.1617       32.75       4.558    
   98500   49.25      0.5000E-03 NODE         577   0.0%  0.1339E-14  0.5942       0.000      0.5941      0.1617       32.75       4.558    
   98600   49.30      0.5000E-03 NODE         540   0.0%  0.4973E-15  0.5942       0.000      0.5941      0.1617       32.75       4.558    
   98700   49.35      0.5000E-03 NODE         540   0.0%  0.1092E-14  0.5942       0.000      0.5941      0.1617       32.75       4.558    
   98800   49.40      0.5000E-03 NODE         540   0.0%  0.8310E-15  0.5942       0.000      0.5941      0.1617       32.75       4.558    
   98900   49.45      0.5000E-03 NODE         540   0.0%  0.6214E-15  0.5942       0.000      0.5941      0.1617       32.75       4.558    
   CYCLE    TIME      TIME-STEP  ELEMENT          ERROR  I-ENERGY    K-ENERGY T  K-ENERGY R  EXT-WORK     MAS.ERR     TOTAL MASS  MASS ADDED
   99000   49.50      0.5000E-03 NODE         540   0.0%  0.1618E-14  0.5942       0.000      0.5941      0.1617       32.75       4.558    
   99100   49.55      0.5000E-03 NODE         540   0.0%  0.2827E-15  0.5942       0.000      0.5941      0.1617       32.75       4.558    
   99200   49.60      0.5000E-03 NODE         577   0.0%  0.8840E-15  0.5942       0.000      0.5941      0.1617       32.75       4.558    
   99300   49.65      0.5000E-03 NODE         542   0.0%  0.1054E-14  0.5942       0.000      0.5941      0.1617       32.75       4.558    
   99400   49.70      0.5000E-03 NODE         542   0.0%  0.2922E-15  0.5942       0.000      0.5941      0.1617       32.75       4.558    
   99500   49.75      0.5000E-03 NODE         542   0.0%  0.1340E-14  0.5942       0.000      0.5941      0.1617       32.75       4.558    
   99600   49.80      0.5000E-03 NODE         542   0.0%  0.5038E-15  0.5942       0.000      0.5941      0.1617       32.75       4.558    
   99700   49.85      0.5000E-03 NODE         542   0.0%  0.8496E-15  0.5942       0.000      0.5941      0.1617       32.75       4.558    
   99800   49.90      0.5000E-03 NODE         542   0.0%  0.1276E-14  0.5942       0.000      0.5941      0.1617       32.75       4.558    
   99900   49.95      0.5000E-03 NODE         530   0.0%  0.3540E-15  0.5942       0.000      0.5941      0.1617       32.75       4.558    
  100000   50.00      0.5000E-03 NODE         530   0.0%  0.1128E-14  0.5942       0.000      0.5941      0.1617       32.75       4.558    
  100100   50.05      0.5000E-03 NODE         548   0.0%  0.7728E-15  0.5942       0.000      0.5941      0.1617       32.75       4.558    
  100200   50.10      0.5000E-03 NODE         552   0.0%  0.4266E-15  0.5942       0.000      0.5941      0.1617       32.75       4.558    
  100300   50.15      0.5000E-03 NODE         552   0.0%  0.1204E-14  0.5942       0.000      0.5941      0.1617       32.75       4.558    
  100400   50.20      0.5000E-03 NODE         552   0.0%  0.5952E-15  0.5942       0.000      0.5941      0.1617       32.75       4.558    
  100500   50.25      0.5000E-03 NODE         552   0.0%  0.7275E-15  0.5942       0.000      0.5941      0.1617       32.75       4.558    
  100600   50.30      0.5000E-03 NODE         552   0.0%  0.1171E-14  0.5942       0.000      0.5941      0.1617       32.75       4.558    
  100700   50.35      0.5000E-03 NODE         552   0.0%  0.3742E-15  0.5942       0.000      0.5941      0.1617       32.75       4.558    
  100800   50.40      0.5000E-03 NODE         557   0.0%  0.1107E-14  0.5942       0.000      0.5941      0.1617       32.75       4.558    
  100900   50.45      0.5000E-03 NODE         550   0.0%  0.9214E-15  0.5942       0.000      0.5941      0.1617       32.75       4.558    
  101000   50.50      0.5000E-03 NODE         550   0.0%  0.3876E-15  0.5942       0.000      0.5941      0.1617       32.75       4.558    
  101100   50.55      0.5000E-03 NODE         550   0.0%  0.1391E-14  0.5942       0.000      0.5941      0.1617       32.75       4.558    
  101200   50.60      0.5000E-03 NODE         550   0.0%  0.3880E-15  0.5942       0.000      0.5941      0.1617       32.75       4.558    
  101300   50.65      0.5000E-03 NODE         550   0.0%  0.7919E-15  0.5942       0.000      0.5941      0.1617       32.75       4.558    
  101400   50.70      0.5000E-03 NODE         550   0.0%  0.9933E-15  0.5942       0.000      0.5941      0.1617       32.75       4.558    
  101500   50.75      0.5000E-03 NODE         557   0.0%  0.2775E-15  0.5942       0.000      0.5941      0.1617       32.75       4.558    
  101600   50.80      0.5000E-03 NODE         557   0.0%  0.1521E-14  0.5942       0.000      0.5941      0.1617       32.75       4.558    
  101700   50.85      0.5000E-03 NODE         557   0.0%  0.4807E-15  0.5942       0.000      0.5941      0.1617       32.75       4.558    
  101800   50.90      0.5000E-03 NODE         557   0.0%  0.7123E-15  0.5942       0.000      0.5941      0.1617       32.75       4.558    
  101900   50.95      0.5000E-03 NODE         557   0.0%  0.1347E-14  0.5942       0.000      0.5941      0.1617       32.75       4.558    
  102000   51.00      0.5000E-03 NODE         557   0.0%  0.3214E-15  0.5942       0.000      0.5941      0.1617       32.75       4.558    
     ANIMATION FILE: 001thermalA018 WRITTEN
  102100   51.05      0.5000E-03 NODE         557   0.0%  0.1654E-14  0.5942       0.000      0.5941      0.1617       32.75       4.558    
  102200   51.10      0.5000E-03 NODE         557   0.0%  0.1313E-14  0.5942       0.000      0.5941      0.1617       32.75       4.558    
  102300   51.15      0.5000E-03 NODE         557   0.0%  0.3207E-15  0.5942       0.000      0.5941      0.1617       32.75       4.558    
  102400   51.20      0.5000E-03 NODE         557   0.0%  0.1314E-14  0.5942       0.000      0.5941      0.1617       32.75       4.558    
  102500   51.25      0.5000E-03 NODE         557   0.0%  0.5801E-15  0.5942       0.000      0.5941      0.1617       32.75       4.558    
  102600   51.30      0.5000E-03 NODE         557   0.0%  0.9213E-15  0.5942       0.000      0.5941      0.1617       32.75       4.558    
  102700   51.35      0.5000E-03 NODE         557   0.0%  0.1483E-14  0.5942       0.000      0.5941      0.1617       32.75       4.558    
  102800   51.40      0.5000E-03 NODE         557   0.0%  0.3810E-15  0.5942       0.000      0.5941      0.1617       32.75       4.558    
  102900   51.45      0.5000E-03 NODE         557   0.0%  0.1294E-14  0.5942       0.000      0.5941      0.1617       32.75       4.558    
  103000   51.50      0.5000E-03 NODE         557   0.0%  0.1193E-14  0.5942       0.000      0.5942      0.1617       32.75       4.558    
  103100   51.55      0.5000E-03 NODE         557   0.0%  0.4800E-15  0.5942       0.000      0.5942      0.1617       32.75       4.558    
  103200   51.60      0.5000E-03 NODE         557  -0.0%  0.1545E-14  0.5942       0.000      0.5942      0.1617       32.75       4.558    
  103300   51.65      0.5000E-03 NODE         557  -0.0%  0.5146E-15  0.5942       0.000      0.5942      0.1617       32.75       4.558    
  103400   51.70      0.5000E-03 NODE         557  -0.0%  0.8161E-15  0.5942       0.000      0.5942      0.1617       32.75       4.558    
  103500   51.75      0.5000E-03 NODE         557  -0.0%  0.1406E-14  0.5942       0.000      0.5942      0.1617       32.75       4.558    
  103600   51.80      0.5000E-03 NODE         557  -0.0%  0.2788E-15  0.5942       0.000      0.5942      0.1617       32.75       4.558    
  103700   51.85      0.5000E-03 NODE         557  -0.0%  0.1664E-14  0.5942       0.000      0.5942      0.1617       32.75       4.558    
  103800   51.90      0.5000E-03 NODE         557  -0.0%  0.8555E-15  0.5942       0.000      0.5942      0.1617       32.75       4.558    
  103900   51.95      0.5000E-03 NODE         557  -0.0%  0.4926E-15  0.5942       0.000      0.5942      0.1617       32.75       4.558    
  104000   52.00      0.5000E-03 NODE         557  -0.0%  0.1684E-14  0.5942       0.000      0.5942      0.1617       32.75       4.558    
  104100   52.05      0.5000E-03 NODE         557  -0.0%  0.3238E-15  0.5942       0.000      0.5942      0.1617       32.75       4.558    
  104200   52.10      0.5000E-03 NODE         562  -0.0%  0.1204E-14  0.5942       0.000      0.5942      0.1617       32.75       4.558    
  104300   52.15      0.5000E-03 NODE         562  -0.0%  0.1307E-14  0.5942       0.000      0.5942      0.1617       32.75       4.558    
  104400   52.20      0.5000E-03 NODE         562  -0.0%  0.3418E-15  0.5942       0.000      0.5942      0.1617       32.75       4.558    
   CYCLE    TIME      TIME-STEP  ELEMENT          ERROR  I-ENERGY    K-ENERGY T  K-ENERGY R  EXT-WORK     MAS.ERR     TOTAL MASS  MASS ADDED
  104500   52.25      0.5000E-03 NODE         562  -0.0%  0.1430E-14  0.5942       0.000      0.5942      0.1617       32.75       4.558    
  104600   52.30      0.5000E-03 NODE         562  -0.0%  0.7620E-15  0.5942       0.000      0.5942      0.1617       32.75       4.558    
  104700   52.35      0.5000E-03 NODE         562  -0.0%  0.8348E-15  0.5942       0.000      0.5942      0.1617       32.75       4.558    
  104800   52.40      0.5000E-03 NODE         562  -0.0%  0.1455E-14  0.5942       0.000      0.5942      0.1617       32.75       4.558    
  104900   52.45      0.5000E-03 NODE         562  -0.0%  0.4149E-15  0.5942       0.000      0.5942      0.1617       32.75       4.558    
  105000   52.50      0.5000E-03 NODE         562  -0.0%  0.1212E-14  0.5942       0.000      0.5942      0.1617       32.75       4.558    
  105100   52.55      0.5000E-03 NODE         562  -0.0%  0.1167E-14  0.5942       0.000      0.5942      0.1617       32.75       4.558    
  105200   52.60      0.5000E-03 NODE         562  -0.0%  0.5049E-15  0.5942       0.000      0.5942      0.1617       32.75       4.558    
  105300   52.65      0.5000E-03 NODE         562  -0.0%  0.1698E-14  0.5942       0.000      0.5942      0.1617       32.75       4.558    
  105400   52.70      0.5000E-03 NODE         562  -0.0%  0.5881E-15  0.5942       0.000      0.5942      0.1617       32.75       4.558    
  105500   52.75      0.5000E-03 NODE         562  -0.0%  0.7478E-15  0.5942       0.000      0.5942      0.1617       32.75       4.558    
  105600   52.80      0.5000E-03 NODE         562  -0.0%  0.1417E-14  0.5942       0.000      0.5942      0.1617       32.75       4.558    
  105700   52.85      0.5000E-03 NODE         562  -0.0%  0.2333E-15  0.5942       0.000      0.5942      0.1617       32.75       4.558    
  105800   52.90      0.5000E-03 NODE         562  -0.0%  0.1524E-14  0.5942       0.000      0.5942      0.1617       32.75       4.558    
  105900   52.95      0.5000E-03 NODE         562  -0.0%  0.9641E-15  0.5942       0.000      0.5942      0.1617       32.75       4.558    
  106000   53.00      0.5000E-03 NODE         562  -0.0%  0.3961E-15  0.5942       0.000      0.5942      0.1617       32.75       4.558    
  106100   53.05      0.5000E-03 NODE         562  -0.0%  0.1656E-14  0.5942       0.000      0.5942      0.1617       32.75       4.558    
  106200   53.10      0.5000E-03 NODE         562  -0.0%  0.4982E-15  0.5942       0.000      0.5942      0.1617       32.75       4.558    
  106300   53.15      0.5000E-03 NODE         562  -0.0%  0.1104E-14  0.5942       0.000      0.5942      0.1617       32.75       4.558    
  106400   53.20      0.5000E-03 NODE         562  -0.0%  0.1227E-14  0.5942       0.000      0.5942      0.1617       32.75       4.558    
  106500   53.25      0.5000E-03 NODE         562  -0.0%  0.3349E-15  0.5942       0.000      0.5942      0.1617       32.75       4.558    
  106600   53.30      0.5000E-03 NODE         562  -0.0%  0.1422E-14  0.5942       0.000      0.5942      0.1617       32.75       4.558    
  106700   53.35      0.5000E-03 NODE         562  -0.0%  0.6499E-15  0.5942       0.000      0.5942      0.1617       32.75       4.558    
  106800   53.40      0.5000E-03 NODE         562  -0.0%  0.8298E-15  0.5942       0.000      0.5942      0.1617       32.75       4.558    
  106900   53.45      0.5000E-03 NODE         562  -0.0%  0.1492E-14  0.5942       0.000      0.5942      0.1617       32.75       4.558    
  107000   53.50      0.5000E-03 NODE         562  -0.0%  0.4075E-15  0.5942       0.000      0.5942      0.1617       32.75       4.558    
  107100   53.55      0.5000E-03 NODE         562  -0.0%  0.1212E-14  0.5942       0.000      0.5942      0.1617       32.75       4.558    
  107200   53.60      0.5000E-03 NODE         562  -0.0%  0.1134E-14  0.5942       0.000      0.5942      0.1617       32.75       4.558    
  107300   53.65      0.5000E-03 NODE         562  -0.0%  0.4554E-15  0.5942       0.000      0.5942      0.1617       32.75       4.558    
  107400   53.70      0.5000E-03 NODE         562  -0.0%  0.1579E-14  0.5942       0.000      0.5942      0.1617       32.75       4.558    
  107500   53.75      0.5000E-03 NODE         530  -0.0%  0.6163E-15  0.5942       0.000      0.5942      0.1617       32.75       4.558    
  107600   53.80      0.5000E-03 NODE         538  -0.0%  0.6863E-15  0.5942       0.000      0.5942      0.1617       32.75       4.558    
  107700   53.85      0.5000E-03 NODE         535  -0.0%  0.1537E-14  0.5942       0.000      0.5942      0.1617       32.75       4.558    
  107800   53.90      0.5000E-03 NODE         533  -0.0%  0.3231E-15  0.5942       0.000      0.5942      0.1617       32.75       4.558    
  107900   53.95      0.5000E-03 NODE         545  -0.0%  0.1346E-14  0.5942       0.000      0.5942      0.1617       32.75       4.558    
  108000   54.00      0.5000E-03 NODE         530  -0.0%  0.1060E-14  0.5942       0.000      0.5942      0.1617       32.75       4.558    
     ANIMATION FILE: 001thermalA019 WRITTEN
  108100   54.05      0.5000E-03 NODE         536  -0.0%  0.4069E-15  0.5942       0.000      0.5942      0.1617       32.75       4.558    
  108200   54.10      0.5000E-03 NODE         535  -0.0%  0.1537E-14  0.5942       0.000      0.5942      0.1617       32.75       4.558    
  108300   54.15      0.5000E-03 NODE         567  -0.0%  0.4905E-15  0.5942       0.000      0.5942      0.1617       32.75       4.558    
  108400   54.20      0.5000E-03 NODE         567  -0.0%  0.1127E-14  0.5942       0.000      0.5942      0.1617       32.75       4.558    
  108500   54.25      0.5000E-03 NODE         567  -0.0%  0.1289E-14  0.5942       0.000      0.5942      0.1617       32.75       4.558    
  108600   54.30      0.5000E-03 NODE         567  -0.0%  0.3516E-15  0.5942       0.000      0.5942      0.1617       32.75       4.558    
  108700   54.35      0.5000E-03 NODE         567  -0.0%  0.1528E-14  0.5942       0.000      0.5942      0.1617       32.75       4.558    
  108800   54.40      0.5000E-03 NODE         567  -0.0%  0.7405E-15  0.5942       0.000      0.5942      0.1617       32.75       4.558    
  108900   54.45      0.5000E-03 NODE         567  -0.0%  0.7106E-15  0.5942       0.000      0.5942      0.1617       32.75       4.558    
  109000   54.50      0.5000E-03 NODE         567  -0.0%  0.1503E-14  0.5942       0.000      0.5942      0.1617       32.75       4.558    
  109100   54.55      0.5000E-03 NODE         567  -0.0%  0.3715E-15  0.5942       0.000      0.5942      0.1617       32.75       4.558    
  109200   54.60      0.5000E-03 NODE         567  -0.0%  0.1095E-14  0.5942       0.000      0.5942      0.1617       32.75       4.558    
  109300   54.65      0.5000E-03 NODE         567  -0.0%  0.1266E-14  0.5942       0.000      0.5942      0.1617       32.75       4.558    
  109400   54.70      0.5000E-03 NODE         567  -0.0%  0.5122E-15  0.5942       0.000      0.5942      0.1617       32.75       4.558    
  109500   54.75      0.5000E-03 NODE         567  -0.0%  0.1548E-14  0.5942       0.000      0.5942      0.1617       32.75       4.558    
  109600   54.80      0.5000E-03 NODE         567  -0.0%  0.8314E-15  0.5942       0.000      0.5942      0.1617       32.75       4.558    
  109700   54.85      0.5000E-03 NODE         567  -0.0%  0.6413E-15  0.5942       0.000      0.5942      0.1617       32.75       4.558    
  109800   54.90      0.5000E-03 NODE         567  -0.0%  0.1464E-14  0.5942       0.000      0.5942      0.1617       32.75       4.558    
  109900   54.95      0.5000E-03 NODE         567  -0.0%  0.3893E-15  0.5942       0.000      0.5942      0.1617       32.75       4.558    
   CYCLE    TIME      TIME-STEP  ELEMENT          ERROR  I-ENERGY    K-ENERGY T  K-ENERGY R  EXT-WORK     MAS.ERR     TOTAL MASS  MASS ADDED
  110000   55.00      0.5000E-03 NODE         568  -0.0%  0.1220E-14  0.5942       0.000      0.5942      0.1617       32.75       4.558    
  110100   55.05      0.5000E-03 NODE         561  -0.0%  0.1110E-14  0.5942       0.000      0.5942      0.1617       32.75       4.558    
  110200   55.10      0.5000E-03 NODE         538  -0.0%  0.4477E-15  0.5942       0.000      0.5942      0.1617       32.75       4.558    
  110300   55.15      0.5000E-03 NODE         564  -0.0%  0.1641E-14  0.5942       0.000      0.5942      0.1617       32.75       4.558    
  110400   55.20      0.5000E-03 NODE         537  -0.0%  0.5647E-15  0.5942       0.000      0.5942      0.1617       32.75       4.558    
  110500   55.25      0.5000E-03 NODE         548  -0.0%  0.1068E-14  0.5942       0.000      0.5942      0.1617       32.75       4.558    
  110600   55.30      0.5000E-03 NODE         568  -0.0%  0.1422E-14  0.5942       0.000      0.5942      0.1617       32.75       4.558    
  110700   55.35      0.5000E-03 NODE         552  -0.0%  0.2302E-15  0.5942       0.000      0.5942      0.1617       32.75       4.558    
  110800   55.40      0.5000E-03 NODE         572  -0.0%  0.1452E-14  0.5942       0.000      0.5942      0.1617       32.75       4.558    
  110900   55.45      0.5000E-03 NODE         572  -0.0%  0.8373E-15  0.5942       0.000      0.5942      0.1617       32.75       4.558    
  111000   55.50      0.5000E-03 NODE         572  -0.0%  0.6429E-15  0.5942       0.000      0.5942      0.1617       32.75       4.558    
  111100   55.55      0.5000E-03 NODE         572  -0.0%  0.1590E-14  0.5942       0.000      0.5942      0.1617       32.75       4.558    
  111200   55.60      0.5000E-03 NODE         572  -0.0%  0.4952E-15  0.5942       0.000      0.5942      0.1617       32.75       4.558    
  111300   55.65      0.5000E-03 NODE         572  -0.0%  0.1072E-14  0.5942       0.000      0.5942      0.1617       32.75       4.558    
  111400   55.70      0.5000E-03 NODE         572  -0.0%  0.1263E-14  0.5942       0.000      0.5942      0.1617       32.75       4.558    
  111500   55.75      0.5000E-03 NODE         572  -0.0%  0.4624E-15  0.5942       0.000      0.5942      0.1617       32.75       4.558    
  111600   55.80      0.5000E-03 NODE         572  -0.0%  0.1426E-14  0.5942       0.000      0.5942      0.1617       32.75       4.558    
  111700   55.85      0.5000E-03 NODE         572  -0.0%  0.8575E-15  0.5942       0.000      0.5942      0.1617       32.75       4.558    
  111800   55.90      0.5000E-03 NODE         572  -0.0%  0.6764E-15  0.5942       0.000      0.5942      0.1617       32.75       4.558    
  111900   55.95      0.5000E-03 NODE         572  -0.0%  0.1735E-14  0.5942       0.000      0.5942      0.1617       32.75       4.558    
  112000   56.00      0.5000E-03 NODE         572  -0.0%  0.5308E-15  0.5942       0.000      0.5943      0.1617       32.75       4.558    
  112100   56.05      0.5000E-03 NODE         572  -0.0%  0.1213E-14  0.5942       0.000      0.5943      0.1617       32.75       4.558    
  112200   56.10      0.5000E-03 NODE         572  -0.0%  0.1116E-14  0.5942       0.000      0.5943      0.1617       32.75       4.558    
  112300   56.15      0.5000E-03 NODE         572  -0.0%  0.3875E-15  0.5942       0.000      0.5943      0.1617       32.75       4.558    
  112400   56.20      0.5000E-03 NODE         572  -0.0%  0.1793E-14  0.5942       0.000      0.5943      0.1617       32.75       4.558    
  112500   56.25      0.5000E-03 NODE         572  -0.0%  0.5980E-15  0.5942       0.000      0.5943      0.1617       32.75       4.558    
  112600   56.30      0.5000E-03 NODE         572  -0.0%  0.9390E-15  0.5942       0.000      0.5943      0.1617       32.75       4.558    
  112700   56.35      0.5000E-03 NODE         572  -0.0%  0.1613E-14  0.5942       0.000      0.5943      0.1617       32.75       4.558    
  112800   56.40      0.5000E-03 NODE         572  -0.0%  0.3000E-15  0.5942       0.000      0.5943      0.1617       32.75       4.558    
  112900   56.45      0.5000E-03 NODE         572  -0.0%  0.1519E-14  0.5942       0.000      0.5943      0.1617       32.75       4.558    
  113000   56.50      0.5000E-03 NODE         572  -0.0%  0.9118E-15  0.5942       0.000      0.5943      0.1617       32.75       4.558    
  113100   56.55      0.5000E-03 NODE         572  -0.0%  0.5950E-15  0.5942       0.000      0.5943      0.1617       32.75       4.558    
  113200   56.60      0.5000E-03 NODE         572  -0.0%  0.1678E-14  0.5942       0.000      0.5943      0.1617       32.75       4.558    
  113300   56.65      0.5000E-03 NODE         572  -0.0%  0.4673E-15  0.5942       0.000      0.5943      0.1617       32.75       4.558    
  113400   56.70      0.5000E-03 NODE         572  -0.0%  0.1158E-14  0.5942       0.000      0.5943      0.1617       32.75       4.558    
  113500   56.75      0.5000E-03 NODE         572  -0.0%  0.1424E-14  0.5942       0.000      0.5943      0.1617       32.75       4.558    
  113600   56.80      0.5000E-03 NODE         572  -0.0%  0.4753E-15  0.5942       0.000      0.5943      0.1617       32.75       4.558    
  113700   56.85      0.5000E-03 NODE         572  -0.0%  0.1618E-14  0.5942       0.000      0.5943      0.1617       32.75       4.558    
  113800   56.90      0.5000E-03 NODE         572  -0.0%  0.9576E-15  0.5942       0.000      0.5943      0.1617       32.75       4.558    
  113900   56.95      0.5000E-03 NODE         572  -0.0%  0.6591E-15  0.5942       0.000      0.5943      0.1617       32.75       4.558    
  114000   57.00      0.5000E-03 NODE         572  -0.0%  0.1682E-14  0.5942       0.000      0.5943      0.1617       32.75       4.558    
     ANIMATION FILE: 001thermalA020 WRITTEN
  114100   57.05      0.5000E-03 NODE         572  -0.0%  0.4444E-15  0.5942       0.000      0.5943      0.1617       32.75       4.558    
  114200   57.10      0.5000E-03 NODE         577  -0.0%  0.1194E-14  0.5942       0.000      0.5943      0.1617       32.75       4.558    
  114300   57.15      0.5000E-03 NODE         577  -0.0%  0.1355E-14  0.5942       0.000      0.5943      0.1617       32.75       4.558    
  114400   57.20      0.5000E-03 NODE         577  -0.0%  0.3572E-15  0.5942       0.000      0.5943      0.1617       32.75       4.558    
  114500   57.25      0.5000E-03 NODE         577  -0.0%  0.1836E-14  0.5942       0.000      0.5943      0.1617       32.75       4.558    
  114600   57.30      0.5000E-03 NODE         577  -0.0%  0.6927E-15  0.5942       0.000      0.5943      0.1617       32.75       4.558    
  114700   57.35      0.5000E-03 NODE         577  -0.0%  0.8234E-15  0.5942       0.000      0.5943      0.1617       32.75       4.558    
  114800   57.40      0.5000E-03 NODE         577  -0.0%  0.1717E-14  0.5942       0.000      0.5943      0.1617       32.75       4.558    
  114900   57.45      0.5000E-03 NODE         577  -0.0%  0.2276E-15  0.5942       0.000      0.5943      0.1617       32.75       4.558    
  115000   57.50      0.5000E-03 NODE         577  -0.0%  0.1478E-14  0.5942       0.000      0.5943      0.1617       32.75       4.558    
  115100   57.55      0.5000E-03 NODE         577  -0.0%  0.1074E-14  0.5942       0.000      0.5943      0.1617       32.75       4.558    
  115200   57.60      0.5000E-03 NODE         577  -0.0%  0.5066E-15  0.5942       0.000      0.5943      0.1617       32.75       4.558    
  115300   57.65      0.5000E-03 NODE         577  -0.0%  0.1816E-14  0.5942       0.000      0.5943      0.1617       32.75       4.558    
  115400   57.70      0.5000E-03 NODE         577  -0.0%  0.5133E-15  0.5942       0.000      0.5943      0.1617       32.75       4.558    
   CYCLE    TIME      TIME-STEP  ELEMENT          ERROR  I-ENERGY    K-ENERGY T  K-ENERGY R  EXT-WORK     MAS.ERR     TOTAL MASS  MASS ADDED
  115500   57.75      0.5000E-03 NODE         577  -0.0%  0.1393E-14  0.5942       0.000      0.5943      0.1617       32.75       4.558    
  115600   57.80      0.5000E-03 NODE         577  -0.0%  0.1755E-14  0.5942       0.000      0.5943      0.1617       32.75       4.558    
  115700   57.85      0.5000E-03 NODE         577  -0.0%  0.3113E-15  0.5942       0.000      0.5943      0.1617       32.75       4.558    
  115800   57.90      0.5000E-03 NODE         577  -0.0%  0.1641E-14  0.5942       0.000      0.5943      0.1617       32.75       4.558    
  115900   57.95      0.5000E-03 NODE         577  -0.0%  0.1014E-14  0.5942       0.000      0.5943      0.1617       32.75       4.558    
  116000   58.00      0.5000E-03 NODE         577  -0.0%  0.7842E-15  0.5942       0.000      0.5943      0.1617       32.75       4.558    
  116100   58.05      0.5000E-03 NODE         577  -0.0%  0.1945E-14  0.5942       0.000      0.5943      0.1617       32.75       4.558    
  116200   58.10      0.5000E-03 NODE         577  -0.0%  0.4448E-15  0.5942       0.000      0.5943      0.1617       32.75       4.558    
  116300   58.15      0.5000E-03 NODE         577  -0.0%  0.1424E-14  0.5942       0.000      0.5943      0.1617       32.75       4.558    
  116400   58.20      0.5000E-03 NODE         577  -0.0%  0.1568E-14  0.5942       0.000      0.5943      0.1617       32.75       4.558    
  116500   58.25      0.5000E-03 NODE         577  -0.0%  0.2360E-15  0.5942       0.000      0.5943      0.1617       32.75       4.558    
  116600   58.30      0.5000E-03 NODE         577  -0.0%  0.2044E-14  0.5942       0.000      0.5943      0.1617       32.75       4.558    
  116700   58.35      0.5000E-03 NODE         577  -0.0%  0.8126E-15  0.5942       0.000      0.5943      0.1617       32.75       4.558    
  116800   58.40      0.5000E-03 NODE         540  -0.0%  0.9734E-15  0.5942       0.000      0.5943      0.1617       32.75       4.558    
  116900   58.45      0.5000E-03 NODE         540  -0.0%  0.2220E-14  0.5942       0.000      0.5943      0.1617       32.75       4.558    
  117000   58.50      0.5000E-03 NODE         540  -0.0%  0.5331E-15  0.5942       0.000      0.5943      0.1617       32.75       4.558    
  117100   58.55      0.5000E-03 NODE         540  -0.0%  0.1240E-14  0.5942       0.000      0.5943      0.1617       32.75       4.558    
  117200   58.60      0.5000E-03 NODE         540  -0.0%  0.9914E-15  0.5942       0.000      0.5943      0.1617       32.75       4.558    
  117300   58.65      0.5000E-03 NODE         577  -0.0%  0.2847E-15  0.5942       0.000      0.5943      0.1617       32.75       4.558    
  117400   58.70      0.5000E-03 NODE         577  -0.0%  0.1738E-14  0.5942       0.000      0.5943      0.1617       32.75       4.558    
  117500   58.75      0.5000E-03 NODE         542  -0.0%  0.5587E-15  0.5942       0.000      0.5943      0.1617       32.75       4.558    
  117600   58.80      0.5000E-03 NODE         542  -0.0%  0.8357E-15  0.5942       0.000      0.5943      0.1617       32.75       4.558    
  117700   58.85      0.5000E-03 NODE         542  -0.0%  0.1489E-14  0.5942       0.000      0.5943      0.1617       32.75       4.558    
  117800   58.90      0.5000E-03 NODE         542  -0.0%  0.3724E-15  0.5942       0.000      0.5943      0.1617       32.75       4.558    
  117900   58.95      0.5000E-03 NODE         542  -0.0%  0.1456E-14  0.5942       0.000      0.5943      0.1617       32.75       4.558    
  118000   59.00      0.5000E-03 NODE         543  -0.0%  0.8905E-15  0.5942       0.000      0.5943      0.1617       32.75       4.558    
  118100   59.05      0.5000E-03 NODE         537  -0.0%  0.5871E-15  0.5942       0.000      0.5943      0.1617       32.75       4.558    
  118200   59.10      0.5000E-03 NODE         537  -0.0%  0.1567E-14  0.5942       0.000      0.5943      0.1617       32.75       4.558    
  118300   59.15      0.5000E-03 NODE         538  -0.0%  0.2832E-15  0.5942       0.000      0.5943      0.1617       32.75       4.558    
  118400   59.20      0.5000E-03 NODE         552  -0.0%  0.1194E-14  0.5942       0.000      0.5943      0.1617       32.75       4.558    
  118500   59.25      0.5000E-03 NODE         552  -0.0%  0.1543E-14  0.5942       0.000      0.5943      0.1617       32.75       4.558    
  118600   59.30      0.5000E-03 NODE         552  -0.0%  0.2355E-15  0.5942       0.000      0.5943      0.1617       32.75       4.558    
  118700   59.35      0.5000E-03 NODE         552  -0.0%  0.1531E-14  0.5942       0.000      0.5944      0.1617       32.75       4.558    
  118800   59.40      0.5000E-03 NODE         552  -0.0%  0.8025E-15  0.5942       0.000      0.5944      0.1617       32.75       4.558    
  118900   59.45      0.5000E-03 NODE         552  -0.0%  0.5481E-15  0.5942       0.000      0.5944      0.1617       32.75       4.558    
  119000   59.50      0.5000E-03 NODE         557  -0.0%  0.1694E-14  0.5942       0.000      0.5944      0.1617       32.75       4.558    
  119100   59.55      0.5000E-03 NODE         550  -0.0%  0.3700E-15  0.5942       0.000      0.5944      0.1617       32.75       4.558    
  119200   59.60      0.5000E-03 NODE         550  -0.0%  0.1228E-14  0.5942       0.000      0.5944      0.1617       32.75       4.558    
  119300   59.65      0.5000E-03 NODE         550  -0.0%  0.1183E-14  0.5942       0.000      0.5944      0.1617       32.75       4.558    
  119400   59.70      0.5000E-03 NODE         550  -0.0%  0.3733E-15  0.5942       0.000      0.5944      0.1617       32.75       4.558    
  119500   59.75      0.5000E-03 NODE         550  -0.0%  0.1790E-14  0.5942       0.000      0.5944      0.1617       32.75       4.558    
  119600   59.80      0.5000E-03 NODE         550  -0.0%  0.7091E-15  0.5942       0.000      0.5944      0.1617       32.75       4.558    
  119700   59.85      0.5000E-03 NODE         557  -0.0%  0.8564E-15  0.5942       0.000      0.5944      0.1617       32.75       4.558    
  119800   59.90      0.5000E-03 NODE         557  -0.0%  0.1493E-14  0.5942       0.000      0.5944      0.1617       32.75       4.558    
  119900   59.95      0.5000E-03 NODE         557  -0.0%  0.2150E-15  0.5942       0.000      0.5944      0.1617       32.75       4.558    

     RESTART FILES: 001thermal_0001_[0001-0001].rst WRITTEN
     -------------

  120000   60.00      0.5000E-03 NODE         557  -0.0%  0.1704E-14  0.5942       0.000      0.5944      0.1617       32.75       4.558    
     ANIMATION FILE: 001thermalA021 WRITTEN
  
                           ** CPU USER TIME **
  
  
                        ** SUMMARY **
  
 #PROC  CONTSORT  CONTFOR   ELEMENT   KINCOND   INTEG     IO        T0        ASM       RESOL    
   1   .2307E+02 .7964E+01 .4558E+02 .1278E+03 .1361E+02 .1949E+02 .7428E+03 .1460E+02 .9296E+03
  
 
                   ** CUMULATIVE CPU TIME SUMMARY **
  
 CONTACT SORTING.............: .2307E+02     2.48 % 
 CONTACT FORCES..............: .7964E+01     0.86 % 
 ELEMENT FORCES..............: .4558E+02     4.90 % 
 KINEMATIC COND..............: .1278E+03    13.75 % 
 INTEGRATION.................: .1361E+02     1.46 % 
 ASSEMBLING..................: .1460E+02     1.57 % 
 OTHERS (including I/O)......: .6970E+03    74.98 % 
 TOTAL.......................: .9296E+03   100.00 % 
  
  
                           ** ELAPSED TIME **
  
  
                        ** SUMMARY **
  
 #PROC  CONTSORT  CONTFOR   ELEMENT   KINCOND   INTEG     IO        T0        ASM       RESOL    
   1   .1660E+02 .6704E+01 .3485E+02 .2772E+02 .7646E+01 .1514E+02 .3381E+02 .9638E+01 .1664E+03
  
                   ** MEMORY USAGE STATISTICS **
  
 TOTAL MEMORY USED .........................:       95 MB
 MAXIMUM MEMORY PER PROCESSOR...............:       95 MB
 MINIMUM MEMORY PER PROCESSOR...............:       95 MB
 AVERAGE MEMORY PER PROCESSOR...............:       95 MB
  
                   ** DISK USAGE STATISTICS **
  
 TOTAL DISK SPACE USED .....................:          1 MB
 ANIMATION/H3D/TH/OUTP SIZE ................:          0 MB
 RESTART FILE SIZE .........................:          0 MB
  
                   ** COMPUTE TIME INFORMATION **
                        ** CURRENT ENGINE **
  
 EXECUTION STARTED .........................:      2023/10/26  23:50:20
 EXECUTION COMPLETED .......................:      2023/10/26  23:53:06
  
 ELAPSED TIME     =        167.02 s
                          0:02:47

 ** THERMAL ANALYSIS **
    IMPOSED FLUX_DENSITY HEAT............:  0.0000000    
    HEAT CONVERTED FROM STRAIN ENERGY....:  0.0000000    
    CONVECTION HEAT......................:  0.0000000    
    RADIATION HEAT.......................:  0.0000000    
    HEAT STORED..........................: 0.30917109E-14



     NORMAL TERMINATION      



     TOTAL NUMBER OF CYCLES  :  120001

  
                   ** COMPUTE RUNTIME INFORMATION SUMMARY **
  
        STARTER RUNTIME =         23.75s (00:00:23)
 # 001   ENGINE RUNTIME =        167.02s (00:02:47)
 ------------------------------ 
 STARTER+ENGINE RUNTIME =        190.77s (00:03:10)
  
